K-Spacing Value to Generate K-Mesh: 0.010
0
Monkhorst-Pack
  8  8  1
0.0  0.0  0.0
