L=2,4|T=5,1|O=1|d=3.644|a=0.5972|b=0.1780
1.0
   8.1761550739920139    0.0000000000000000    0.0000000000000000
   0.0000000000000000    8.2176550739920131    0.0000000000000000
   0.0000000000000000    0.0000000000000000  116.7759999999999962
Cs Pb S Br
8 40 24 40
direct
   0.5000000000000000    0.0000000000000000    0.3053449829143704 Cs
   0.0000000000000000    0.5000000000000000    0.3053449829143704 Cs
   0.5000000000000000    0.0000000000000000    0.3560849487431111 Cs
   0.0000000000000000    0.5000000000000000    0.3560849487431111 Cs
   0.5000000000000000    0.0000000000000000    0.4068249145718519 Cs
   0.0000000000000000    0.5000000000000000    0.4068249145718519 Cs
   0.5000000000000000    0.0000000000000000    0.4575648804005927 Cs
   0.0000000000000000    0.5000000000000000    0.4575648804005927 Cs
   0.0000000000000000    0.0000000000000000    0.2799750000000000 Pb
   0.5000000000000000    0.5000000000000000    0.2799750000000000 Pb
   0.0000000000000000    0.0000000000000000    0.3307149658287408 Pb
   0.5000000000000000    0.5000000000000000    0.3307149658287408 Pb
   0.0000000000000000    0.0000000000000000    0.3814549316574816 Pb
   0.5000000000000000    0.5000000000000000    0.3814549316574816 Pb
   0.0000000000000000    0.0000000000000000    0.4321948974862223 Pb
   0.5000000000000000    0.5000000000000000    0.4321948974862223 Pb
   0.9721433060759718    0.0670701034254806    0.4972196685813293 Pb
   0.5283433060759719    0.5670701034254806    0.4972196685813293 Pb
   0.0283433060759715    0.6508701034254807    0.5065919731235240 Pb
   0.4721433060759717    0.1508701034254809    0.5065919731235240 Pb
   0.6500433060759716    0.4943701034254807    0.5329811011647434 Pb
   0.8504433060759715    0.9943701034254807    0.5329811011647434 Pb
   0.2032433060759715    0.2886701034254807    0.5329811011647434 Pb
   0.2972433060759716    0.7886701034254811    0.5329811011647434 Pb
   0.0283433060759715    0.6508701034254807    0.5593702292059628 Pb
   0.4721433060759717    0.1508701034254809    0.5593702292059628 Pb
   0.9721433060759718    0.0670701034254806    0.5687425337481576 Pb
   0.5283433060759719    0.5670701034254806    0.5687425337481576 Pb
   0.7032433060759715    0.9292701034254807    0.5951316617893770 Pb
   0.7972433060759716    0.4292701034254807    0.5951316617893770 Pb
   0.1500433060759714    0.7235701034254807    0.5951316617893770 Pb
   0.3504433060759715    0.2235701034254806    0.5951316617893770 Pb
   0.9721433060759718    0.0670701034254806    0.6215207898305967 Pb
   0.5283433060759719    0.5670701034254806    0.6215207898305967 Pb
   0.0283433060759715    0.6508701034254807    0.6308930943727913 Pb
   0.4721433060759717    0.1508701034254809    0.6308930943727913 Pb
   0.6500433060759716    0.4943701034254807    0.6572822224140108 Pb
   0.8504433060759715    0.9943701034254807    0.6572822224140108 Pb
   0.2032433060759715    0.2886701034254807    0.6572822224140108 Pb
   0.2972433060759716    0.7886701034254811    0.6572822224140108 Pb
   0.0283433060759715    0.6508701034254807    0.6836713504552302 Pb
   0.4721433060759717    0.1508701034254809    0.6836713504552302 Pb
   0.9721433060759718    0.0670701034254806    0.6930436549974248 Pb
   0.5283433060759719    0.5670701034254806    0.6930436549974248 Pb
   0.7032433060759715    0.9292701034254807    0.7194327830386444 Pb
   0.7972433060759716    0.4292701034254807    0.7194327830386444 Pb
   0.1500433060759714    0.7235701034254807    0.7194327830386444 Pb
   0.3504433060759715    0.2235701034254806    0.7194327830386444 Pb
   0.0972433060759714    0.0399701034254807    0.5183135688573298 S
   0.4032433060759715    0.5399701034254807    0.5183135688573298 S
   0.0092433060759716    0.6459701034254807    0.5329811011647434 S
   0.4912433060759715    0.1459701034254806    0.5329811011647434 S
   0.0972433060759714    0.0399701034254807    0.5476486334721570 S
   0.4032433060759715    0.5399701034254807    0.5476486334721570 S
   0.5972433060759718    0.1779701034254806    0.5804641294819636 S
   0.9032433060759717    0.6779701034254808    0.5804641294819636 S
   0.9912433060759716    0.0719701034254807    0.5951316617893770 S
   0.5092433060759718    0.5719701034254810    0.5951316617893770 S
   0.5972433060759718    0.1779701034254806    0.6097991940967906 S
   0.9032433060759717    0.6779701034254808    0.6097991940967906 S
   0.0972433060759714    0.0399701034254807    0.6426146901065972 S
   0.4032433060759715    0.5399701034254807    0.6426146901065972 S
   0.0092433060759716    0.6459701034254807    0.6572822224140108 S
   0.4912433060759715    0.1459701034254806    0.6572822224140108 S
   0.0972433060759714    0.0399701034254807    0.6719497547214243 S
   0.4032433060759715    0.5399701034254807    0.6719497547214243 S
   0.5972433060759718    0.1779701034254806    0.7047652507312308 S
   0.9032433060759717    0.6779701034254808    0.7047652507312308 S
   0.9912433060759716    0.0719701034254807    0.7194327830386444 S
   0.5092433060759718    0.5719701034254810    0.7194327830386444 S
   0.5972433060759718    0.1779701034254806    0.7341003153460581 S
   0.9032433060759717    0.6779701034254808    0.7341003153460581 S
   0.2500000000000000    0.2500000000000000    0.2799750000000000 Br
   0.7500000000000000    0.7500000000000000    0.2799750000000000 Br
   0.2499999999999999    0.7500000000000000    0.2799750000000000 Br
   0.7500000000000000    0.2499999999999999    0.2799750000000000 Br
   0.0000000000000000    0.0000000000000000    0.3053449829143704 Br
   0.5000000000000000    0.5000000000000000    0.3053449829143704 Br
   0.2500000000000000    0.2500000000000000    0.3307149658287408 Br
   0.7500000000000000    0.7500000000000000    0.3307149658287408 Br
   0.2499999999999999    0.7500000000000000    0.3307149658287408 Br
   0.7500000000000000    0.2499999999999999    0.3307149658287408 Br
   0.0000000000000000    0.0000000000000000    0.3560849487431111 Br
   0.5000000000000000    0.5000000000000000    0.3560849487431111 Br
   0.2500000000000000    0.2500000000000000    0.3814549316574816 Br
   0.7500000000000000    0.7500000000000000    0.3814549316574816 Br
   0.2499999999999999    0.7500000000000000    0.3814549316574816 Br
   0.7500000000000000    0.2499999999999999    0.3814549316574816 Br
   0.0000000000000000    0.0000000000000000    0.4068249145718519 Br
   0.5000000000000000    0.5000000000000000    0.4068249145718519 Br
   0.2500000000000000    0.2500000000000000    0.4321948974862223 Br
   0.7500000000000000    0.7500000000000000    0.4321948974862223 Br
   0.2499999999999999    0.7500000000000000    0.4321948974862223 Br
   0.7500000000000000    0.2499999999999999    0.4321948974862223 Br
   0.0000000000000000    0.0000000000000000    0.4575648804005927 Br
   0.5000000000000000    0.5000000000000000    0.4575648804005927 Br
   0.1661433060759716    0.3728701034254807    0.4887671923363791 Br
   0.3343433060759716    0.8728701034254809    0.4887671923363791 Br
   0.6661433060759715    0.8450701034254806    0.5150444493684742 Br
   0.8343433060759715    0.3450701034254807    0.5150444493684742 Br
   0.6661433060759715    0.8450701034254806    0.5509177529610128 Br
   0.8343433060759715    0.3450701034254807    0.5509177529610128 Br
   0.1661433060759716    0.3728701034254807    0.5771950099931079 Br
   0.3343433060759716    0.8728701034254809    0.5771950099931079 Br
   0.1661433060759716    0.3728701034254807    0.6130683135856463 Br
   0.3343433060759716    0.8728701034254809    0.6130683135856463 Br
   0.6661433060759715    0.8450701034254806    0.6393455706177413 Br
   0.8343433060759715    0.3450701034254807    0.6393455706177413 Br
   0.6661433060759715    0.8450701034254806    0.6752188742102799 Br
   0.8343433060759715    0.3450701034254807    0.6752188742102799 Br
   0.1661433060759716    0.3728701034254807    0.7014961312423752 Br
   0.3343433060759716    0.8728701034254809    0.7014961312423752 Br
