Cs2 Pb4 Br4
1.0
   8.1761550739920139    0.0000000000000000    0.0000000000000000
   0.0000000000000000    8.2176550739920131    0.0000000000000000
   0.0000000000000000    0.0000000000000000  116.7759999999999962
Cs Pb Br
2 4 4
direct
   0.5000000000000000    0.0000000000000000    0.4575648804005927 Cs
   0.0000000000000000    0.5000000000000000    0.4575648804005927 Cs
   0.9721433060759718    0.0670701034254806    0.4972196685813293 Pb
   0.5283433060759719    0.5670701034254806    0.4972196685813293 Pb
   0.0283433060759715    0.6508701034254807    0.5065919731235240 Pb
   0.4721433060759717    0.1508701034254809    0.5065919731235240 Pb
   0.0000000000000000    0.0000000000000000    0.4575648804005927 Br
   0.5000000000000000    0.5000000000000000    0.4575648804005927 Br
   0.1661433060759716    0.3728701034254807    0.4887671923363791 Br
   0.3343433060759716    0.8728701034254809    0.4887671923363791 Br
