L=2|T=0|O=True
1.0
   8.0950000000000006    0.0000000000000000    0.0000000000000000
   0.0000000000000000    8.1780000000000008    0.0000000000000000
   0.0000000000000000    0.0000000000000000   58.9279999999999973
Pb S Br
32 24 16
direct
   0.0562000000000000    0.4162000000000000    0.2594250000000000 Pb
   0.5000000000000000    0.9162000000000000    0.2594250000000000 Pb
   0.2311000000000000    0.7784000000000000    0.3125000000000000 Pb
   0.3251000000000000    0.2784000000000000    0.3125000000000000 Pb
   0.6778999999999999    0.5727000000000000    0.3125000000000000 Pb
   0.8783000000000000    0.0727000000000000    0.3125000000000000 Pb
   0.0562000000000000    0.4162000000000000    0.3655750000000000 Pb
   0.5000000000000000    0.9162000000000000    0.3655750000000000 Pb
   0.0000000000000000    0.0000000000000000    0.3844250000000000 Pb
   0.5562000000000000    0.5000000000000000    0.3844250000000000 Pb
   0.1779000000000000    0.3435000000000000    0.4375000000000000 Pb
   0.3783000000000000    0.8435000000000000    0.4375000000000000 Pb
   0.7311000000000000    0.1378000000000000    0.4375000000000000 Pb
   0.8250999999999999    0.6378000000000000    0.4375000000000000 Pb
   0.0000000000000000    0.0000000000000000    0.4905750000000000 Pb
   0.5562000000000000    0.5000000000000000    0.4905750000000000 Pb
   0.0562000000000000    0.4162000000000000    0.5094250000000000 Pb
   0.5000000000000000    0.9162000000000000    0.5094250000000000 Pb
   0.2311000000000000    0.7784000000000000    0.5625000000000000 Pb
   0.3251000000000000    0.2784000000000000    0.5625000000000000 Pb
   0.6778999999999999    0.5727000000000000    0.5625000000000000 Pb
   0.8783000000000000    0.0727000000000000    0.5625000000000000 Pb
   0.0562000000000000    0.4162000000000000    0.6155750000000000 Pb
   0.5000000000000000    0.9162000000000000    0.6155750000000000 Pb
   0.0000000000000000    0.0000000000000000    0.6344250000000000 Pb
   0.5562000000000000    0.5000000000000000    0.6344250000000000 Pb
   0.1779000000000000    0.3435000000000000    0.6875000000000000 Pb
   0.3783000000000000    0.8435000000000000    0.6875000000000000 Pb
   0.7311000000000000    0.1378000000000000    0.6875000000000000 Pb
   0.8250999999999999    0.6378000000000000    0.6875000000000000 Pb
   0.0000000000000000    0.0000000000000000    0.7405750000000000 Pb
   0.5562000000000000    0.5000000000000000    0.7405750000000000 Pb
   0.1251000000000000    0.0271000000000000    0.2830000000000000 S
   0.4311000000000000    0.5271000000000000    0.2830000000000000 S
   0.0371000000000000    0.4211000000000000    0.3125000000000000 S
   0.5191000000000000    0.9211000000000000    0.3125000000000000 S
   0.1251000000000000    0.0271000000000000    0.3420000000000000 S
   0.4311000000000000    0.5271000000000000    0.3420000000000000 S
   0.6251000000000000    0.8891000000000000    0.4080000000000000 S
   0.9311000000000000    0.3891000000000000    0.4080000000000000 S
   0.0191000000000000    0.9951000000000000    0.4375000000000000 S
   0.5371000000000000    0.4951000000000000    0.4375000000000000 S
   0.6251000000000000    0.8891000000000000    0.4670000000000000 S
   0.9311000000000000    0.3891000000000000    0.4670000000000000 S
   0.1251000000000000    0.0271000000000000    0.5330000000000000 S
   0.4311000000000000    0.5271000000000000    0.5330000000000000 S
   0.0371000000000000    0.4211000000000000    0.5625000000000000 S
   0.5191000000000000    0.9211000000000000    0.5625000000000000 S
   0.1251000000000000    0.0271000000000000    0.5920000000000000 S
   0.4311000000000000    0.5271000000000000    0.5920000000000000 S
   0.6251000000000000    0.8891000000000000    0.6580000000000000 S
   0.9311000000000000    0.3891000000000000    0.6580000000000000 S
   0.0191000000000000    0.9951000000000000    0.6875000000000000 S
   0.5371000000000000    0.4951000000000000    0.6875000000000000 S
   0.6251000000000000    0.8891000000000000    0.7170000000000000 S
   0.9311000000000000    0.3891000000000000    0.7170000000000000 S
   0.6940000000000000    0.2220000000000000    0.2764250000000000 Br
   0.8622000000000000    0.7220000000000000    0.2764250000000000 Br
   0.6940000000000000    0.2220000000000000    0.3485750000000000 Br
   0.8622000000000000    0.7220000000000000    0.3485750000000000 Br
   0.1940000000000000    0.6942000000000000    0.4014250000000000 Br
   0.3622000000000000    0.1942000000000000    0.4014250000000000 Br
   0.1940000000000000    0.6942000000000000    0.4735750000000000 Br
   0.3622000000000000    0.1942000000000000    0.4735750000000000 Br
   0.6940000000000000    0.2220000000000000    0.5264250000000000 Br
   0.8622000000000000    0.7220000000000000    0.5264250000000000 Br
   0.6940000000000000    0.2220000000000000    0.5985750000000000 Br
   0.8622000000000000    0.7220000000000000    0.5985750000000000 Br
   0.1940000000000000    0.6942000000000000    0.6514250000000000 Br
   0.3622000000000000    0.1942000000000000    0.6514250000000000 Br
   0.1940000000000000    0.6942000000000000    0.7235750000000000 Br
   0.3622000000000000    0.1942000000000000    0.7235750000000000 Br
