Cs2 Pb2 S2 Br4
1.0
   8.1761550739920139    0.0000000000000000    0.0000000000000000
   0.0000000000000000    8.2176550739920131    0.0000000000000000
   0.0000000000000000    0.0000000000000000  110.9372000000000043
Cs Pb S Br
2 2 2 4
direct
   0.5000000000000000    0.0000000000000000    0.4585437162111503 Cs
   0.0000000000000000    0.5000000000000000    0.4585437162111503 Cs
   0.5283993534290911    0.4918084432916798    0.4862521632054637 Pb
   0.9721993534290911    0.9918084432916801    0.4862521632054637 Pb
   0.5972993534290911    0.1027084432916798    0.4985906850305223 S
   0.9032993534290911    0.6027084432916798    0.4985906850305223 S
   0.0000000000000000    0.0000000000000000    0.4585437162111503 Br
   0.5000000000000000    0.5000000000000000    0.4585437162111503 Br
   0.1661993534290911    0.2976084432916799    0.4951495066212008 Br
   0.3343993534290910    0.7976084432916797    0.4951495066212008 Br
