L=2,4|T=0,1|O=1|d=3.074|a=0.4722|b=0.0756
1.0
   8.1761550739920139    0.0000000000000000    0.0000000000000000
   0.0000000000000000    8.2176550739920131    0.0000000000000000
   0.0000000000000000    0.0000000000000000  110.9372000000000043
Cs Pb S Br
8 40 24 40
direct
   0.5000000000000000    0.0000000000000000    0.2983122451730215 Cs
   0.0000000000000000    0.5000000000000000    0.2983122451730215 Cs
   0.5000000000000000    0.0000000000000000    0.3517227355190643 Cs
   0.0000000000000000    0.5000000000000000    0.3517227355190643 Cs
   0.5000000000000000    0.0000000000000000    0.4051332258651071 Cs
   0.0000000000000000    0.5000000000000000    0.4051332258651071 Cs
   0.5000000000000000    0.0000000000000000    0.4585437162111503 Cs
   0.0000000000000000    0.5000000000000000    0.4585437162111503 Cs
   0.0000000000000000    0.0000000000000000    0.2716070000000000 Pb
   0.5000000000000000    0.5000000000000000    0.2716070000000000 Pb
   0.0000000000000000    0.0000000000000000    0.3250174903460429 Pb
   0.5000000000000000    0.5000000000000000    0.3250174903460429 Pb
   0.0000000000000000    0.0000000000000000    0.3784279806920857 Pb
   0.5000000000000000    0.5000000000000000    0.3784279806920857 Pb
   0.0000000000000000    0.0000000000000000    0.4318384710381288 Pb
   0.5000000000000000    0.5000000000000000    0.4318384710381288 Pb
   0.5283993534290911    0.4918084432916798    0.4862521632054637 Pb
   0.9721993534290911    0.9918084432916801    0.4862521632054637 Pb
   0.7032993534290911    0.8540084432916801    0.5140301927225367 Pb
   0.7972993534290913    0.3540084432916797    0.5140301927225367 Pb
   0.1500993534290911    0.6483084432916799    0.5140301927225367 Pb
   0.3504993534290912    0.1483084432916797    0.5140301927225367 Pb
   0.5283993534290911    0.4918084432916798    0.5418082222396099 Pb
   0.9721993534290911    0.9918084432916801    0.5418082222396099 Pb
   0.4721993534290911    0.0756084432916798    0.5516738059682359 Pb
   0.0283993534290912    0.5756084432916799    0.5516738059682359 Pb
   0.6500993534290911    0.4191084432916798    0.5794518354853089 Pb
   0.8504993534290911    0.9191084432916798    0.5794518354853089 Pb
   0.2032993534290914    0.2134084432916798    0.5794518354853089 Pb
   0.2972993534290915    0.7134084432916799    0.5794518354853089 Pb
   0.4721993534290911    0.0756084432916798    0.6072298650023821 Pb
   0.0283993534290912    0.5756084432916799    0.6072298650023821 Pb
   0.5283993534290911    0.4918084432916798    0.6170954487310082 Pb
   0.9721993534290911    0.9918084432916801    0.6170954487310082 Pb
   0.7032993534290911    0.8540084432916801    0.6448734782480811 Pb
   0.7972993534290913    0.3540084432916797    0.6448734782480811 Pb
   0.1500993534290911    0.6483084432916799    0.6448734782480811 Pb
   0.3504993534290912    0.1483084432916797    0.6448734782480811 Pb
   0.5283993534290911    0.4918084432916798    0.6726515077651544 Pb
   0.9721993534290911    0.9918084432916801    0.6726515077651544 Pb
   0.4721993534290911    0.0756084432916798    0.6825170914937803 Pb
   0.0283993534290912    0.5756084432916799    0.6825170914937803 Pb
   0.6500993534290911    0.4191084432916798    0.7102951210108536 Pb
   0.8504993534290911    0.9191084432916798    0.7102951210108536 Pb
   0.2032993534290914    0.2134084432916798    0.7102951210108536 Pb
   0.2972993534290915    0.7134084432916799    0.7102951210108536 Pb
   0.4721993534290911    0.0756084432916798    0.7380731505279267 Pb
   0.0283993534290912    0.5756084432916799    0.7380731505279267 Pb
   0.5972993534290911    0.1027084432916798    0.4985906850305223 S
   0.9032993534290911    0.6027084432916798    0.4985906850305223 S
   0.5092993534290911    0.4967084432916798    0.5140301927225367 S
   0.9912993534290913    0.9967084432916797    0.5140301927225367 S
   0.5972993534290911    0.1027084432916798    0.5294697004145510 S
   0.9032993534290911    0.6027084432916798    0.5294697004145510 S
   0.0972993534290911    0.9647084432916799    0.5640123277932948 S
   0.4032993534290914    0.4647084432916798    0.5640123277932948 S
   0.4912993534290911    0.0707084432916796    0.5794518354853089 S
   0.0092993534290911    0.5707084432916800    0.5794518354853089 S
   0.0972993534290911    0.9647084432916799    0.5948913431773231 S
   0.4032993534290914    0.4647084432916798    0.5948913431773231 S
   0.5972993534290911    0.1027084432916798    0.6294339705560671 S
   0.9032993534290911    0.6027084432916798    0.6294339705560671 S
   0.5092993534290911    0.4967084432916798    0.6448734782480811 S
   0.9912993534290913    0.9967084432916797    0.6448734782480811 S
   0.5972993534290911    0.1027084432916798    0.6603129859400955 S
   0.9032993534290911    0.6027084432916798    0.6603129859400955 S
   0.0972993534290911    0.9647084432916799    0.6948556133188392 S
   0.4032993534290914    0.4647084432916798    0.6948556133188392 S
   0.4912993534290911    0.0707084432916796    0.7102951210108536 S
   0.0092993534290911    0.5707084432916800    0.7102951210108536 S
   0.0972993534290911    0.9647084432916799    0.7257346287028678 S
   0.4032993534290914    0.4647084432916798    0.7257346287028678 S
   0.2500000000000000    0.2500000000000000    0.2716070000000000 Br
   0.7500000000000000    0.7500000000000000    0.2716070000000000 Br
   0.2499999999999999    0.7500000000000000    0.2716070000000000 Br
   0.7500000000000000    0.2499999999999999    0.2716070000000000 Br
   0.0000000000000000    0.0000000000000000    0.2983122451730215 Br
   0.5000000000000000    0.5000000000000000    0.2983122451730215 Br
   0.2500000000000000    0.2500000000000000    0.3250174903460429 Br
   0.7500000000000000    0.7500000000000000    0.3250174903460429 Br
   0.2499999999999999    0.7500000000000000    0.3250174903460429 Br
   0.7500000000000000    0.2499999999999999    0.3250174903460429 Br
   0.0000000000000000    0.0000000000000000    0.3517227355190643 Br
   0.5000000000000000    0.5000000000000000    0.3517227355190643 Br
   0.2500000000000000    0.2500000000000000    0.3784279806920857 Br
   0.7500000000000000    0.7500000000000000    0.3784279806920857 Br
   0.2499999999999999    0.7500000000000000    0.3784279806920857 Br
   0.7500000000000000    0.2499999999999999    0.3784279806920857 Br
   0.0000000000000000    0.0000000000000000    0.4051332258651071 Br
   0.5000000000000000    0.5000000000000000    0.4051332258651071 Br
   0.2500000000000000    0.2500000000000000    0.4318384710381288 Br
   0.7500000000000000    0.7500000000000000    0.4318384710381288 Br
   0.2499999999999999    0.7500000000000000    0.4318384710381288 Br
   0.7500000000000000    0.2499999999999999    0.4318384710381288 Br
   0.0000000000000000    0.0000000000000000    0.4585437162111503 Br
   0.5000000000000000    0.5000000000000000    0.4585437162111503 Br
   0.1661993534290911    0.2976084432916799    0.4951495066212008 Br
   0.3343993534290910    0.7976084432916797    0.4951495066212008 Br
   0.1661993534290911    0.2976084432916799    0.5329108788238728 Br
   0.3343993534290910    0.7976084432916797    0.5329108788238728 Br
   0.6661993534290911    0.7698084432916801    0.5605711493839729 Br
   0.8343993534290911    0.2698084432916797    0.5605711493839729 Br
   0.6661993534290911    0.7698084432916801    0.5983325215866450 Br
   0.8343993534290911    0.2698084432916797    0.5983325215866450 Br
   0.1661993534290911    0.2976084432916799    0.6259927921467451 Br
   0.3343993534290910    0.7976084432916797    0.6259927921467451 Br
   0.1661993534290911    0.2976084432916799    0.6637541643494173 Br
   0.3343993534290910    0.7976084432916797    0.6637541643494173 Br
   0.6661993534290911    0.7698084432916801    0.6914144349095172 Br
   0.8343993534290911    0.2698084432916797    0.6914144349095172 Br
   0.6661993534290911    0.7698084432916801    0.7291758071121895 Br
   0.8343993534290911    0.2698084432916797    0.7291758071121895 Br
