####################################################################### 
# 
# This file contains crystal structure data downloaded from the 
# Cambridge Structural Database (CSD) hosted by the Cambridge 
# Crystallographic Data Centre (CCDC).
# 
# Full information about CCDC data access policies and citation 
# guidelines are available at http://www.ccdc.cam.ac.uk/access/V1 
# 
# Audit and citation data items may have been added by the CCDC. 
# Please retain this information to preserve the provenance of 
# this file and to allow appropriate attribution of the data. 
# 
#######################################################################

data_global
_audit_block_doi                 10.25505/fiz.icsd.cc2c7830
_database_code_depnum_ccdc_archive 'CCDC 2181721'
loop_
_citation_id
_citation_doi
_citation_year
1 10.1038/s41467-022-31699-1 2022
loop_
_audit_author_name
_audit_author_address
'Anna Moliterni'
;Institute of Crystallography, CNR, Bari, Italy
Italy
;
_audit_update_record             
;
2022-06-24 deposited with the CCDC.	2023-01-03 downloaded from the CCDC.
;
#=============================================================================
# start Validation Reply Form
_vrf_PLAT241_global              
;
PROBLEM: High MainMol Ueq as Compared to Neighbors of 
RESPONSE: The problems concerning the low reliability of the Ueq values can
be ascribed to the strong ovelap of diffraction peaks and the unavoidable 
errors on the estimation of the background contribution.
;
# end Validation Reply Form

_audit_creation_method           Expo2014

_chemical_name_systematic        ?
_chemical_formula_moiety         'Br2 Pb4 S3'
_chemical_formula_sum            'Br2 Pb4 S3'
_chemical_formula_weight         1084.806

loop_
_atom_type_symbol
_atom_type_description
_atom_type_scat_source
S Sulphur 'International Tables Vol C Tables 4.2.6.8 and 6.1.1.4'
Br Bromine 'International Tables Vol C Tables 4.2.6.8 and 6.1.1.4'
Pb Lead 'International Tables Vol C Tables 4.2.6.8 and 6.1.1.4'

_cell_length_a                   8.178(6)
_cell_length_b                   14.732(9)
_cell_length_c                   8.095(7)
_cell_angle_alpha                90.000
_cell_angle_beta                 90.000
_cell_angle_gamma                90.000
_cell_volume                     975.3(13)
_cell_formula_units_Z            4
_exptl_crystal_description       powder
#
#
_exptl_crystal_colour            red
#
#
_cell_measurement_temperature    293
#
_diffrn_measurement_device_type  '28ID-2 beamline at NSLS-II synchrotron'

_diffrn_ambient_temperature      293
_diffrn_radiation_type           synchrotron
_diffrn_radiation_wavelength     0.187364
#
_exptl_crystal_density_diffrn    7.388
_exptl_crystal_density_method    'not measured'
_exptl_absorpt_coefficient_mu    2.4
_symmetry_Int_Tables_number      62
_symmetry_cell_setting           orthorhombic
_symmetry_space_group_name_H-M   'P n m a'
_symmetry_space_group_name_hall  '-P 2ac 2n'

loop_
_symmetry_equiv_pos_site_id
_symmetry_equiv_pos_as_xyz
1 'x, y, z'
2 '-x+1/2, -y, z+1/2'
3 'x+1/2, -y+1/2, -z+1/2'
4 '-x, y+1/2, -z'
5 '-x, -y, -z'
6 'x+1/2, y, -z+1/2'
7 '-x+1/2, y+1/2, z+1/2'
8 'x, -y+1/2, z'

loop_
_atom_site_type_symbol
_atom_site_label
_atom_site_fract_x
_atom_site_fract_y
_atom_site_fract_z
_atom_site_U_iso_or_equiv
_atom_site_occupancy
_atom_site_adp_type
Pb Pb1 0.6354(16) 0.7500 1.3502(13) 0.054(6) 1.0000 Uiso
Pb Pb5 0.4297(15) 0.7500 0.797(2) 0.122(10) 1.0000 Uiso
Pb Pb9 0.7919(10) 0.9623(5) 0.9719(12) 0.115(6) 1.0000 Uiso
S S1 0.787(7) 0.7500 0.991(8) 0.000(18) 1.0000 Uiso
S S5 0.681(6) 0.868(2) 0.597(4) 0.000(13) 1.0000 Uiso
Br Br1 0.4861(18) 0.8943(7) 1.1659(16) 0.000(6) 1.0000 Uiso

loop_
_geom_bond_atom_site_label_1
_geom_bond_atom_site_label_2
_geom_bond_distance
_geom_bond_site_symmetry_2
Pb1 Pb5 3.99(2) 1_556
Pb1 Pb5 3.73(2) 3_567
Pb1 S5 2.67(3) 8_566
Pb1 S5 2.67(3) 1_556
Pb1 Br1 2.869(14) .
Pb1 Br1 2.869(14) 8_565
Pb5 Pb1 3.73(2) 3_467
Pb5 Pb1 3.99(2) 1_554
Pb5 Pb9 4.534(13) .
Pb5 Pb9 3.975(13) 3_466
Pb5 Pb9 3.975(13) 6_456
Pb5 S1 3.31(6) .
Pb5 S1 2.61(7) 3_466
Pb5 S5 2.81(4) 6_456
Pb5 S5 2.81(4) 3_466
Pb5 S5 3.14(4) .
Pb9 Pb5 3.975(13) 3_566
Pb9 Pb9 3.609(12) 5_777
Pb9 S1 3.132(9) .
Pb9 S5 2.71(3) 2_675
Pb9 S5 3.46(3) .
Pb9 Br1 3.119(16) .
S1 Pb5 2.61(7) 3_566
S5 Pb1 2.67(3) 1_554
S5 Pb5 2.81(4) 3_566
S5 Pb9 2.71(3) 2_674

loop_
_geom_angle_atom_site_label_1
_geom_angle_atom_site_label_2
_geom_angle_atom_site_label_3
_geom_angle
_geom_angle_site_symmetry_1
_geom_angle_site_symmetry_3
Pb5 Pb1 Pb5 65.1(3) 1_556 3_567
Pb5 Pb1 S5 51.8(8) 1_556 8_566
Pb5 Pb1 S5 51.8(8) 1_556 1_556
Pb5 Pb1 Br1 107.0(4) 1_556 .
Pb5 Pb1 Br1 107.0(4) 1_556 8_565
Pb5 Pb1 S5 48.6(8) 3_567 8_566
Pb5 Pb1 S5 48.6(8) 3_567 1_556
Pb5 Pb1 Br1 132.2(5) 3_567 .
Pb5 Pb1 Br1 132.2(5) 3_567 8_565
S5 Pb1 S5 81.0(11) 8_566 1_556
S5 Pb1 Br1 158.3(9) 8_566 .
S5 Pb1 Br1 88.1(9) 8_566 8_565
S5 Pb1 Br1 88.1(9) 1_556 .
S5 Pb1 Br1 158.3(9) 1_556 8_565
Br1 Pb1 Br1 95.6(5) . 8_565
Pb1 Br1 Pb9 99.1(4) . .
Pb1 Pb5 Pb1 164.8(4) 3_467 1_554
Pb1 Pb5 Pb9 100.5(3) 3_467 .
Pb1 Pb5 Pb9 103.7(4) 3_467 3_466
Pb1 Pb5 Pb9 103.7(4) 3_467 6_456
Pb1 Pb5 S1 102.0(9) 3_467 .
Pb1 Pb5 S1 113.2(12) 3_467 3_466
Pb1 Pb5 S5 45.5(8) 3_467 6_456
Pb1 Pb5 S5 45.5(8) 3_467 3_466
Pb1 Pb5 S5 144.8(8) 3_467 .
Pb1 Pb5 Pb9 90.4(3) 1_554 .
Pb1 Pb5 Pb9 67.8(3) 1_554 3_466
Pb1 Pb5 Pb9 67.8(3) 1_554 6_456
Pb1 Pb5 S1 93.3(9) 1_554 .
Pb1 Pb5 S1 51.5(11) 1_554 3_466
Pb1 Pb5 S5 125.7(8) 1_554 6_456
Pb1 Pb5 S5 125.7(8) 1_554 3_466
Pb1 Pb5 S5 41.9(7) 1_554 .
Pb9 Pb5 Pb9 154.0(4) . 3_466
Pb9 Pb5 Pb9 79.2(3) . 6_456
Pb9 Pb5 S1 43.68(17) . .
Pb9 Pb5 S1 124.9(12) . 3_466
Pb9 Pb5 S5 87.2(8) . 6_456
Pb9 Pb5 S5 143.5(8) . 3_466
Pb9 Pb5 S5 49.7(7) . .
Pb5 Pb9 Pb5 58.1(3) . 3_566
Pb5 Pb9 Pb9 150.2(3) . 5_777
Pb5 Pb9 S1 47.0(9) . .
Pb5 Pb9 S5 143.8(8) . 2_675
Pb5 Pb9 S5 43.8(6) . .
Pb5 Pb9 Br1 53.9(3) . .
Pb9 Pb5 Pb9 103.8(3) 3_466 6_456
Pb9 Pb5 S1 120.6(9) 3_466 .
Pb9 Pb5 S1 51.9(11) 3_466 3_466
Pb9 Pb5 S5 116.6(8) 3_466 6_456
Pb9 Pb5 S5 58.4(8) 3_466 3_466
Pb9 Pb5 S5 109.7(8) 3_466 .
Pb9 Pb5 S1 120.6(9) 6_456 .
Pb9 Pb5 S1 51.9(11) 6_456 3_466
Pb9 Pb5 S5 58.4(8) 6_456 6_456
Pb9 Pb5 S5 116.6(8) 6_456 3_466
Pb9 Pb5 S5 57.8(7) 6_456 .
S1 Pb5 S1 144.8(15) . 3_466
S1 Pb5 S5 119.6(12) . 6_456
S1 Pb5 S5 119.6(12) . 3_466
S1 Pb5 S5 70.6(11) . .
Pb5 S1 Pb9 89.3(13) . .
Pb5 S1 Pb5 88.4(14) . 3_566
S1 Pb5 S5 87.1(14) 3_466 6_456
S1 Pb5 S5 87.1(14) 3_466 3_466
S1 Pb5 S5 80.3(13) 3_466 .
S5 Pb5 S5 76.3(11) 6_456 3_466
S5 Pb5 S5 106.9(11) 6_456 .
S5 Pb5 S5 166.7(11) 3_466 .
Pb5 S5 Pb9 86.6(9) . .
Pb5 S5 Pb1 86.4(10) . 1_554
Pb5 S5 Pb5 88.6(10) . 3_566
Pb5 S5 Pb9 139.1(14) . 2_674
Pb5 Pb9 Pb9 92.5(3) 3_566 5_777
Pb5 Pb9 S1 40.9(9) 3_566 .
Pb5 Pb9 S5 155.3(8) 3_566 2_675
Pb5 Pb9 S5 43.7(6) 3_566 .
Pb5 Pb9 Br1 104.5(4) 3_566 .
Pb9 Pb9 S1 108.3(10) 5_777 .
Pb9 Pb9 S5 65.9(8) 5_777 2_675
Pb9 Pb9 S5 118.8(7) 5_777 .
Pb9 Pb9 Br1 142.4(4) 5_777 .
S1 Pb9 S5 155.0(12) . 2_675
S1 Pb9 S5 68.7(11) . .
S1 Pb9 Br1 69.2(10) . .
Pb9 S1 Pb5 87.2(14) . 3_566
S5 Pb9 S5 136.1(10) 2_675 .
S5 Pb9 Br1 100.1(8) 2_675 .
S5 Pb9 Br1 95.9(7) . .
Pb9 S5 Pb1 162.5(14) . 1_554
Pb9 S5 Pb5 77.9(9) . 3_566
Pb9 S5 Pb9 86.2(10) . 2_674
Pb1 S5 Pb5 85.9(11) 1_554 3_566
Pb1 S5 Pb9 109.5(13) 1_554 2_674
Pb5 S5 Pb9 128.7(14) 3_566 2_674

loop_
_geom_torsion_atom_site_label_1
_geom_torsion_atom_site_label_2
_geom_torsion_atom_site_label_3
_geom_torsion_atom_site_label_4
_geom_torsion
_geom_torsion_site_symmetry_1
_geom_torsion_site_symmetry_2
_geom_torsion_site_symmetry_3
_geom_torsion_site_symmetry_4
Pb5 Pb1 Br1 Pb9 142.4(5) 1_556 . . .
Pb5 Pb1 Br1 Pb9 71.0(8) 3_567 . . .
S5 Pb1 Br1 Pb9 153(4) 8_566 . . .
S5 Pb1 Br1 Pb9 93.5(13) 1_556 . . .
Br1 Pb1 Br1 Pb9 -107.9(6) 8_565 . . .
Pb1 Pb5 Pb1 S5 124(2) 3_467 . 1_554 .
Pb9 Pb5 Pb1 S5 -12.2(10) . . 1_554 .
Pb9 Pb5 Pb1 S5 -177.6(11) 3_466 . 1_554 .
Pb9 Pb5 Pb1 S5 66.0(10) 6_456 . 1_554 .
S1 Pb5 Pb1 S5 -55.8(19) . . 1_554 .
S1 Pb5 Pb1 S5 124(3) 3_466 . 1_554 .
S5 Pb5 Pb1 S5 74.7(19) 6_456 . 1_554 .
S5 Pb5 Pb1 S5 173.7(19) 3_466 . 1_554 .
S5 Pb5 Pb1 S5 0(2) . . 1_554 .
Pb1 Pb5 Pb9 Pb5 146.8(5) 3_467 . . 3_566
Pb1 Pb5 Pb9 Pb9 136.3(6) 3_467 . . 5_777
Pb1 Pb5 Pb9 S1 96.3(13) 3_467 . . .
Pb1 Pb5 Pb9 S5 -49.1(15) 3_467 . . 2_675
Pb1 Pb5 Pb9 S5 -158.77(100) 3_467 . . .
Pb1 Pb5 Pb9 Br1 1.9(5) 3_467 . . .
Pb1 Pb5 Pb9 Pb5 -43.8(4) 1_554 . . 3_566
Pb1 Pb5 Pb9 Pb9 -54.4(7) 1_554 . . 5_777
Pb1 Pb5 Pb9 S1 -94.3(13) 1_554 . . .
Pb1 Pb5 Pb9 S5 120.3(14) 1_554 . . 2_675
Pb1 Pb5 Pb9 S5 10.6(9) 1_554 . . .
Pb1 Pb5 Pb9 Br1 171.3(5) 1_554 . . .
Pb9 Pb5 Pb9 Pb5 -11.7(9) 3_466 . . 3_566
Pb9 Pb5 Pb9 Pb9 -22.3(14) 3_466 . . 5_777
Pb9 Pb5 Pb9 S1 -62.2(16) 3_466 . . .
Pb9 Pb5 Pb9 S5 152.4(15) 3_466 . . 2_675
Pb9 Pb5 Pb9 S5 42.7(12) 3_466 . . .
Pb9 Pb5 Pb9 Br1 -156.6(11) 3_466 . . .
Pb9 Pb5 Pb9 Pb5 -111.1(4) 6_456 . . 3_566
Pb9 Pb5 Pb9 Pb9 -121.7(6) 6_456 . . 5_777
Pb9 Pb5 Pb9 S1 -161.6(13) 6_456 . . .
Pb9 Pb5 Pb9 S5 53.0(14) 6_456 . . 2_675
Pb9 Pb5 Pb9 S5 -56.7(9) 6_456 . . .
Pb9 Pb5 Pb9 Br1 104.0(5) 6_456 . . .
S1 Pb5 Pb9 Pb5 50(2) . . . 3_566
S1 Pb5 Pb9 Pb9 40(2) . . . 5_777
S1 Pb5 Pb9 S1 0(3) . . . .
S1 Pb5 Pb9 S5 -145(3) . . . 2_675
S1 Pb5 Pb9 S5 105(2) . . . .
S1 Pb5 Pb9 Br1 -94(2) . . . .
S1 Pb5 Pb9 Pb5 -85(2) 3_466 . . 3_566
S1 Pb5 Pb9 Pb9 -96(2) 3_466 . . 5_777
S1 Pb5 Pb9 S1 -135(3) 3_466 . . .
S1 Pb5 Pb9 S5 79(3) 3_466 . . 2_675
S1 Pb5 Pb9 S5 -31(2) 3_466 . . .
S1 Pb5 Pb9 Br1 130(2) 3_466 . . .
S5 Pb5 Pb9 Pb5 -169.5(13) 6_456 . . 3_566
S5 Pb5 Pb9 Pb9 180.0(14) 6_456 . . 5_777
S5 Pb5 Pb9 S1 140.1(18) 6_456 . . .
S5 Pb5 Pb9 S5 -5.4(19) 6_456 . . 2_675
S5 Pb5 Pb9 S5 -115.1(16) 6_456 . . .
S5 Pb5 Pb9 Br1 45.6(13) 6_456 . . .
S5 Pb5 Pb9 Pb5 128(2) 3_466 . . 3_566
S5 Pb5 Pb9 Pb9 118(2) 3_466 . . 5_777
S5 Pb5 Pb9 S1 78(3) 3_466 . . .
S5 Pb5 Pb9 S5 -68(3) 3_466 . . 2_675
S5 Pb5 Pb9 S5 -177(2) 3_466 . . .
S5 Pb5 Pb9 Br1 -17(2) 3_466 . . .
S5 Pb5 Pb9 Pb5 -54.4(16) . . . 3_566
S5 Pb5 Pb9 Pb9 -65.0(17) . . . 5_777
S5 Pb5 Pb9 S1 -105(2) . . . .
S5 Pb5 Pb9 S5 110(2) . . . 2_675
S5 Pb5 Pb9 S5 -0.0(18) . . . .
S5 Pb5 Pb9 Br1 160.7(16) . . . .
Pb1 Pb5 S1 Pb9 -92.8(10) 3_467 . . .
Pb1 Pb5 S1 Pb5 180.0(10) 3_467 . . 3_566
Pb1 Pb5 S1 Pb9 87.2(10) 1_554 . . .
Pb1 Pb5 S1 Pb5 0.0(12) 1_554 . . 3_566
Pb9 Pb5 S1 Pb9 0.0(4) . . . .
Pb9 Pb5 S1 Pb5 -87.2(14) . . . 3_566
Pb9 Pb5 S1 Pb9 153.3(7) 3_466 . . .
Pb9 Pb5 S1 Pb5 66.1(15) 3_466 . . 3_566
Pb9 Pb5 S1 Pb9 21.1(15) 6_456 . . .
Pb9 Pb5 S1 Pb5 -66.1(15) 6_456 . . 3_566
S1 Pb5 S1 Pb9 87(4) 3_466 . . .
S1 Pb5 S1 Pb5 0(4) 3_466 . . 3_566
S5 Pb5 S1 Pb9 -48(2) 6_456 . . .
S5 Pb5 S1 Pb5 -134.7(17) 6_456 . . 3_566
S5 Pb5 S1 Pb9 -138.1(16) 3_466 . . .
S5 Pb5 S1 Pb5 134.7(17) 3_466 . . 3_566
S5 Pb5 S1 Pb9 51.4(15) . . . .
S5 Pb5 S1 Pb5 -35.8(15) . . . 3_566
Pb1 Pb5 S5 Pb9 38.1(16) 3_467 . . .
Pb1 Pb5 S5 Pb1 -157.9(9) 3_467 . . 1_554
Pb1 Pb5 S5 Pb5 116.1(12) 3_467 . . 3_566
Pb1 Pb5 S5 Pb9 -42(3) 3_467 . . 2_674
Pb1 Pb5 S5 Pb9 -164.0(14) 1_554 . . .
Pb1 Pb5 S5 Pb1 0.0(5) 1_554 . . 1_554
Pb1 Pb5 S5 Pb5 -86.0(11) 1_554 . . 3_566
Pb1 Pb5 S5 Pb9 116(2) 1_554 . . 2_674
Pb9 Pb5 S5 Pb9 -0.0(3) . . . .
Pb9 Pb5 S5 Pb1 164.0(13) . . . 1_554
Pb9 Pb5 S5 Pb5 78.0(9) . . . 3_566
Pb9 Pb5 S5 Pb9 -80(2) . . . 2_674
Pb9 Pb5 S5 Pb9 -161.6(5) 3_466 . . .
Pb9 Pb5 S5 Pb1 2.4(11) 3_466 . . 1_554
Pb9 Pb5 S5 Pb5 -83.6(9) 3_466 . . 3_566
Pb9 Pb5 S5 Pb9 118.3(19) 3_466 . . 2_674
Pb9 Pb5 S5 Pb9 104.1(8) 6_456 . . .
Pb9 Pb5 S5 Pb1 -91.9(9) 6_456 . . 1_554
Pb9 Pb5 S5 Pb5 -177.9(12) 6_456 . . 3_566
Pb9 Pb5 S5 Pb9 24.0(16) 6_456 . . 2_674
S1 Pb5 S5 Pb9 -45.1(17) . . . .
S1 Pb5 S5 Pb1 118.9(19) . . . 1_554
S1 Pb5 S5 Pb5 32.9(18) . . . 3_566
S1 Pb5 S5 Pb9 -125(3) . . . 2_674
S1 Pb5 S5 Pb9 155.0(19) 3_466 . . .
S1 Pb5 S5 Pb1 -41.1(19) 3_466 . . 1_554
S1 Pb5 S5 Pb5 -127(2) 3_466 . . 3_566
S1 Pb5 S5 Pb9 75(3) 3_466 . . 2_674
S5 Pb5 S5 Pb9 71.1(15) 6_456 . . .
S5 Pb5 S5 Pb1 -125.0(15) 6_456 . . 1_554
S5 Pb5 S5 Pb5 149.0(15) 6_456 . . 3_566
S5 Pb5 S5 Pb9 -9(3) 6_456 . . 2_674
S5 Pb5 S5 Pb9 173(6) 3_466 . . .
S5 Pb5 S5 Pb1 -23(7) 3_466 . . 1_554
S5 Pb5 S5 Pb5 -109(6) 3_466 . . 3_566
S5 Pb5 S5 Pb9 93(7) 3_466 . . 2_674
Pb5 Pb9 Pb5 S1 -59.4(15) . . 3_566 .
Pb5 Pb9 Pb5 S5 54.6(10) . . 3_566 .
Pb9 Pb9 Pb5 S1 115.4(15) 5_777 . 3_566 .
Pb9 Pb9 Pb5 S5 -130.7(9) 5_777 . 3_566 .
S1 Pb9 Pb5 S1 0(3) . . 3_566 .
S1 Pb9 Pb5 S5 114(3) . . 3_566 .
S5 Pb9 Pb5 S1 143(3) 2_675 . 3_566 .
S5 Pb9 Pb5 S5 -103(3) 2_675 . 3_566 .
S5 Pb9 Pb5 S1 -114(2) . . 3_566 .
S5 Pb9 Pb5 S5 0.0(18) . . 3_566 .
Br1 Pb9 Pb5 S1 -30.7(15) . . 3_566 .
Br1 Pb9 Pb5 S5 83.2(10) . . 3_566 .
Pb5 Pb9 S1 Pb5 0.0(5) . . . .
Pb5 Pb9 S1 Pb5 88.5(14) . . . 3_566
Pb5 Pb9 S1 Pb5 -88.5(15) 3_566 . . .
Pb5 Pb9 S1 Pb5 0.0(6) 3_566 . . 3_566
Pb9 Pb9 S1 Pb5 -160.4(7) 5_777 . . .
Pb9 Pb9 S1 Pb5 -71.9(13) 5_777 . . 3_566
S5 Pb9 S1 Pb5 128(3) 2_675 . . .
S5 Pb9 S1 Pb5 -144(3) 2_675 . . 3_566
S5 Pb9 S1 Pb5 -45.8(14) . . . .
S5 Pb9 S1 Pb5 42.6(15) . . . 3_566
Br1 Pb9 S1 Pb5 59.6(9) . . . .
Br1 Pb9 S1 Pb5 148.0(15) . . . 3_566
Pb5 Pb9 S5 Pb5 -0.0(5) . . . .
Pb5 Pb9 S5 Pb1 -66(4) . . . 1_554
Pb5 Pb9 S5 Pb5 -89.3(10) . . . 3_566
Pb5 Pb9 S5 Pb9 139.8(14) . . . 2_674
Pb5 Pb9 S5 Pb5 89.3(10) 3_566 . . .
Pb5 Pb9 S5 Pb1 23(4) 3_566 . . 1_554
Pb5 Pb9 S5 Pb5 0.0(6) 3_566 . . 3_566
Pb5 Pb9 S5 Pb9 -131.0(14) 3_566 . . 2_674
Pb9 Pb9 S5 Pb5 149.1(6) 5_777 . . .
Pb9 Pb9 S5 Pb1 83(5) 5_777 . . 1_554
Pb9 Pb9 S5 Pb5 59.8(10) 5_777 . . 3_566
Pb9 Pb9 S5 Pb9 -71.2(10) 5_777 . . 2_674
S1 Pb9 S5 Pb5 49.3(18) . . . .
S1 Pb9 S5 Pb1 -17(5) . . . 1_554
S1 Pb9 S5 Pb5 -40.0(18) . . . 3_566
S1 Pb9 S5 Pb9 -171(2) . . . 2_674
S5 Pb9 S5 Pb5 -127(2) 2_675 . . .
S5 Pb9 S5 Pb1 167(4) 2_675 . . 1_554
S5 Pb9 S5 Pb5 144.0(19) 2_675 . . 3_566
S5 Pb9 S5 Pb9 13(2) 2_675 . . 2_674
Br1 Pb9 S5 Pb5 -15.6(8) . . . .
Br1 Pb9 S5 Pb1 -82(5) . . . 1_554
Br1 Pb9 S5 Pb5 -104.9(8) . . . 3_566
Br1 Pb9 S5 Pb9 124.1(8) . . . 2_674
Pb5 Pb9 Br1 Pb1 91.6(6) . . . .
Pb5 Pb9 Br1 Pb1 61.4(6) 3_566 . . .
Pb9 Pb9 Br1 Pb1 -52.8(8) 5_777 . . .
S1 Pb9 Br1 Pb1 40.4(18) . . . .
S5 Pb9 Br1 Pb1 -116.2(13) 2_675 . . .
S5 Pb9 Br1 Pb1 104.9(12) . . . .
Pb5 S1 Pb5 Pb9 89.4(13) . . 3_566 .
Pb5 S1 Pb5 S5 38.2(12) . . 3_566 .
Pb9 S1 Pb5 Pb9 -0.0(3) . . 3_566 .
Pb9 S1 Pb5 S5 -51.2(12) . . 3_566 .
Pb5 S5 Pb1 Pb5 0.0(5) . . 1_554 .
Pb9 S5 Pb1 Pb5 66(4) . . 1_554 .
Pb5 S5 Pb1 Pb5 88.8(10) 3_566 . 1_554 .
Pb9 S5 Pb1 Pb5 -141.4(17) 2_674 . 1_554 .
Pb5 S5 Pb5 Pb9 -86.8(9) . . 3_566 .
Pb5 S5 Pb5 S1 -40.7(14) . . 3_566 .
Pb9 S5 Pb5 Pb9 0.0(3) . . 3_566 .
Pb9 S5 Pb5 S1 46.1(12) . . 3_566 .
Pb1 S5 Pb5 Pb9 -173.2(12) 1_554 . 3_566 .
Pb1 S5 Pb5 S1 -127.2(14) 1_554 . 3_566 .
Pb9 S5 Pb5 Pb9 75.0(16) 2_674 . 3_566 .
Pb9 S5 Pb5 S1 121(2) 2_674 . 3_566 .


# POWDER PROFILE

_pd_meas_2theta_range_min        1.212
_pd_meas_2theta_range_max        9.846
_pd_proc_number_of_points        995

_pd_proc_ls_prof_R_factor        0.05831
_pd_proc_ls_prof_wR_factor       0.07576
_pd_proc_ls_prof_wR_expected     0.03426

_refine_ls_number_reflns         415
_refine_ls_number_parameters     58
_refine_ls_number_restraints     0
_refine_ls_R_I_factor            0.11106
_refine_ls_goodness_of_fit_all   2.21176
_refine_ls_restrained_S_all      2.21176

_reflns_number_total             415
_reflns_limit_h_min              0
_reflns_limit_h_max              7
_reflns_limit_k_min              0
_reflns_limit_k_max              13
_reflns_limit_l_min              0
_reflns_limit_l_max              7
_reflns_d_resolution_high        7.366
_reflns_d_resolution_low         1.092

loop_
_pd_meas_2theta_scan
_pd_meas_counts_total
1.2117018E+00 2.6155209E+02
1.2203878E+00 2.6196674E+02
1.2290738E+00 2.6156686E+02
1.2377599E+00 2.6128531E+02
1.2464459E+00 2.6110315E+02
1.2551320E+00 2.6116278E+02
1.2638180E+00 2.6150992E+02
1.2725041E+00 2.6154617E+02
1.2811902E+00 2.6146680E+02
1.2898760E+00 2.6159012E+02
1.2985622E+00 2.6291147E+02
1.3072482E+00 2.6308206E+02
1.3159343E+00 2.6504239E+02
1.3246202E+00 2.6611270E+02
1.3333063E+00 2.6771030E+02
1.3419924E+00 2.6935370E+02
1.3506783E+00 2.7049472E+02
1.3593644E+00 2.7120102E+02
1.3680505E+00 2.7275140E+02
1.3767364E+00 2.7316187E+02
1.3854225E+00 2.7553720E+02
1.3941085E+00 2.7793985E+02
1.4027945E+00 2.8195749E+02
1.4114805E+00 2.8770685E+02
1.4201666E+00 2.9569489E+02
1.4288528E+00 3.0455945E+02
1.4375386E+00 3.1618814E+02
1.4462248E+00 3.2915536E+02
1.4549106E+00 3.4242273E+02
1.4635968E+00 3.5542789E+02
1.4722828E+00 3.6636902E+02
1.4809687E+00 3.7546530E+02
1.4896549E+00 3.8099533E+02
1.4983408E+00 3.8392743E+02
1.5070270E+00 3.8287781E+02
1.5157129E+00 3.7800601E+02
1.5243990E+00 3.6967343E+02
1.5330851E+00 3.5909863E+02
1.5417711E+00 3.4721417E+02
1.5504571E+00 3.3488828E+02
1.5591432E+00 3.2262387E+02
1.5678291E+00 3.1061545E+02
1.5765152E+00 3.0083481E+02
1.5852013E+00 2.9049826E+02
1.5938872E+00 2.8260855E+02
1.6025733E+00 2.7605014E+02
1.6112593E+00 2.7177316E+02
1.6199453E+00 2.6889062E+02
1.6286314E+00 2.6727594E+02
1.6373174E+00 2.6596332E+02
1.6460035E+00 2.6528836E+02
1.6546896E+00 2.6540869E+02
1.6633755E+00 2.6508475E+02
1.6720617E+00 2.6546573E+02
1.6807475E+00 2.6621481E+02
1.6894337E+00 2.6673746E+02
1.6981198E+00 2.6811343E+02
1.7068058E+00 2.6886438E+02
1.7154918E+00 2.6927600E+02
1.7241778E+00 2.6956802E+02
1.7328639E+00 2.6933640E+02
1.7415498E+00 2.7028421E+02
1.7502359E+00 2.7211533E+02
1.7589220E+00 2.7492496E+02
1.7676079E+00 2.7871082E+02
1.7762940E+00 2.8468906E+02
1.7849801E+00 2.9277859E+02
1.7936660E+00 3.0359045E+02
1.8023522E+00 3.1336322E+02
1.8110383E+00 3.1794830E+02
1.8197241E+00 3.1710345E+02
1.8284101E+00 3.1607004E+02
1.8370963E+00 3.1765149E+02
1.8457824E+00 3.2143604E+02
1.8544682E+00 3.2513748E+02
1.8631543E+00 3.2918552E+02
1.8718405E+00 3.3318726E+02
1.8805264E+00 3.3627576E+02
1.8892125E+00 3.3800333E+02
1.8978983E+00 3.3880963E+02
1.9065845E+00 3.3857614E+02
1.9152706E+00 3.3615524E+02
1.9239566E+00 3.3356287E+02
1.9326428E+00 3.3073428E+02
1.9413286E+00 3.2805673E+02
1.9500147E+00 3.2487549E+02
1.9587007E+00 3.2381903E+02
1.9673868E+00 3.2998410E+02
1.9760729E+00 3.6780606E+02
1.9847587E+00 3.8124277E+02
1.9934448E+00 3.3778897E+02
2.0021310E+00 3.1388681E+02
2.0108171E+00 3.0901691E+02
2.0195029E+00 3.0572955E+02
2.0281889E+00 3.0314178E+02
2.0368750E+00 3.0107504E+02
2.0455611E+00 2.9899200E+02
2.0542471E+00 2.9765646E+02
2.0629330E+00 2.9708826E+02
2.0716190E+00 2.9685110E+02
2.0803053E+00 2.9694583E+02
2.0889912E+00 2.9777136E+02
2.0976772E+00 2.9866663E+02
2.1063631E+00 3.0053583E+02
2.1150494E+00 3.0281909E+02
2.1237354E+00 3.0646469E+02
2.1324215E+00 3.1145111E+02
2.1411076E+00 3.1683588E+02
2.1497934E+00 3.1798145E+02
2.1584795E+00 3.1474704E+02
2.1671655E+00 3.1061734E+02
2.1758516E+00 3.0950717E+02
2.1845376E+00 3.0992264E+02
2.1932235E+00 3.1093857E+02
2.2019095E+00 3.1380347E+02
2.2105958E+00 3.2222366E+02
2.2192819E+00 3.3775259E+02
2.2279677E+00 3.4829361E+02
2.2366538E+00 3.3303217E+02
2.2453399E+00 3.2376636E+02
2.2540259E+00 3.2479794E+02
2.2627120E+00 3.2737476E+02
2.2713978E+00 3.3112222E+02
2.2800839E+00 3.3704904E+02
2.2887700E+00 3.4393427E+02
2.2974560E+00 3.4934753E+02
2.3061419E+00 3.5618893E+02
2.3148282E+00 3.6437131E+02
2.3235142E+00 3.7576483E+02
2.3322003E+00 3.9231619E+02
2.3408864E+00 4.0678418E+02
2.3495722E+00 4.1589932E+02
2.3582582E+00 4.2163309E+02
2.3669443E+00 4.2500809E+02
2.3756304E+00 4.3160715E+02
2.3843164E+00 4.5215118E+02
2.3930023E+00 4.9508636E+02
2.4016883E+00 4.9601648E+02
2.4103746E+00 4.5187650E+02
2.4190607E+00 4.2479129E+02
2.4277465E+00 4.1655917E+02
2.4364326E+00 4.1119177E+02
2.4451187E+00 4.0658728E+02
2.4538047E+00 4.0451044E+02
2.4624908E+00 4.0377493E+02
2.4711766E+00 4.0383643E+02
2.4798627E+00 4.0641800E+02
2.4885488E+00 4.1014618E+02
2.4972348E+00 4.1578302E+02
2.5059211E+00 4.2254337E+02
2.5146070E+00 4.3183722E+02
2.5232930E+00 4.3900983E+02
2.5319788E+00 4.4463962E+02
2.5406651E+00 4.5010852E+02
2.5493510E+00 4.5703641E+02
2.5580368E+00 4.6715005E+02
2.5667231E+00 4.8291022E+02
2.5754092E+00 5.1049435E+02
2.5840950E+00 5.4396021E+02
2.5927813E+00 5.6090967E+02
2.6014671E+00 5.4352472E+02
2.6101534E+00 5.1672485E+02
2.6188393E+00 4.9520938E+02
2.6275253E+00 4.8641806E+02
2.6362114E+00 4.8646100E+02
2.6448975E+00 4.9205237E+02
2.6535833E+00 5.0122159E+02
2.6622696E+00 5.1257343E+02
2.6709557E+00 5.2681702E+02
2.6796415E+00 5.4256232E+02
2.6883276E+00 5.5928894E+02
2.6970136E+00 5.7724835E+02
2.7056997E+00 5.9637585E+02
2.7143857E+00 6.1800934E+02
2.7230716E+00 6.4002301E+02
2.7317576E+00 6.6458923E+02
2.7404439E+00 6.9112836E+02
2.7491298E+00 7.1949768E+02
2.7578161E+00 7.5133667E+02
2.7665019E+00 7.8828442E+02
2.7751880E+00 8.3280444E+02
2.7838738E+00 8.8784503E+02
2.7925601E+00 9.5554840E+02
2.8012459E+00 1.0381027E+03
2.8099322E+00 1.1382316E+03
2.8186181E+00 1.2571917E+03
2.8273041E+00 1.3920472E+03
2.8359904E+00 1.5404707E+03
2.8446763E+00 1.6974373E+03
2.8533621E+00 1.8558145E+03
2.8620484E+00 2.0081161E+03
2.8707345E+00 2.1465759E+03
2.8794203E+00 2.2632163E+03
2.8881061E+00 2.3559534E+03
2.8967924E+00 2.4209111E+03
2.9054785E+00 2.4600237E+03
2.9141645E+00 2.4733357E+03
2.9228506E+00 2.4729429E+03
2.9315364E+00 2.4717222E+03
2.9402227E+00 2.4780530E+03
2.9489086E+00 2.4985027E+03
2.9575946E+00 2.5362473E+03
2.9662807E+00 2.5879519E+03
2.9749668E+00 2.6467808E+03
2.9836526E+00 2.7032366E+03
2.9923389E+00 2.7438579E+03
3.0010250E+00 2.7582097E+03
3.0097108E+00 2.7348535E+03
3.0183969E+00 2.6687075E+03
3.0270829E+00 2.5583711E+03
3.0357692E+00 2.4108303E+03
3.0444551E+00 2.2317278E+03
3.0531409E+00 2.0347697E+03
3.0618269E+00 1.8340052E+03
3.0705132E+00 1.6396829E+03
3.0791991E+00 1.4620502E+03
3.0878854E+00 1.3082557E+03
3.0965712E+00 1.1761924E+03
3.1052573E+00 1.0623809E+03
3.1139433E+00 9.6859918E+02
3.1226294E+00 9.0127728E+02
3.1313152E+00 8.5657849E+02
3.1400015E+00 8.3132642E+02
3.1486874E+00 8.2457715E+02
3.1573734E+00 8.3644977E+02
3.1660597E+00 8.6785626E+02
3.1747456E+00 9.2009692E+02
3.1834314E+00 9.7546075E+02
3.1921177E+00 9.9685071E+02
3.2008038E+00 9.8155981E+02
3.2094896E+00 9.6670312E+02
3.2181756E+00 9.8873682E+02
3.2268617E+00 1.0911122E+03
3.2355480E+00 1.1822948E+03
3.2442338E+00 1.1587649E+03
3.2529199E+00 1.1177255E+03
3.2616057E+00 1.1222590E+03
3.2702920E+00 1.1373541E+03
3.2789779E+00 1.1440656E+03
3.2876642E+00 1.1452094E+03
3.2963500E+00 1.1614888E+03
3.3050361E+00 1.1450486E+03
3.3137219E+00 1.0817286E+03
3.3224082E+00 1.0322145E+03
3.3310943E+00 1.0134869E+03
3.3397803E+00 1.0485146E+03
3.3484662E+00 1.0609930E+03
3.3571522E+00 1.0114807E+03
3.3658385E+00 9.4081390E+02
3.3745244E+00 8.7948022E+02
3.3832102E+00 8.4983142E+02
3.3918965E+00 8.4881433E+02
3.4005826E+00 8.5178503E+02
3.4092684E+00 8.5495557E+02
3.4179542E+00 8.5845337E+02
3.4266405E+00 8.5914203E+02
3.4353266E+00 8.5681543E+02
3.4440126E+00 8.5473187E+02
3.4526987E+00 8.5325232E+02
3.4613845E+00 8.5219049E+02
3.4700706E+00 8.5215894E+02
3.4787567E+00 8.5458209E+02
3.4874427E+00 8.5971857E+02
3.4961290E+00 8.6553845E+02
3.5048146E+00 8.6668921E+02
3.5135007E+00 8.6973737E+02
3.5221870E+00 8.7940887E+02
3.5308731E+00 8.9019946E+02
3.5395589E+00 9.0049414E+02
3.5482450E+00 9.1471948E+02
3.5569310E+00 9.4525714E+02
3.5656168E+00 9.9891919E+02
3.5743032E+00 1.0779283E+03
3.5829890E+00 1.1873431E+03
3.5916753E+00 1.3341750E+03
3.6003611E+00 1.5196849E+03
3.6090469E+00 1.7388750E+03
3.6177335E+00 1.9740334E+03
3.6264193E+00 2.2144055E+03
3.6351054E+00 2.4632947E+03
3.6437914E+00 2.7142556E+03
3.6524773E+00 2.9150769E+03
3.6611633E+00 3.1115669E+03
3.6698492E+00 3.2738457E+03
3.6785357E+00 3.3709783E+03
3.6872215E+00 3.3981924E+03
3.6959076E+00 3.3530493E+03
3.7045937E+00 3.2713120E+03
3.7132795E+00 3.1603564E+03
3.7219658E+00 2.8932290E+03
3.7306516E+00 2.6690720E+03
3.7393374E+00 2.4553640E+03
3.7480240E+00 2.2543416E+03
3.7567098E+00 2.0707488E+03
3.7653961E+00 1.9095291E+03
3.7740819E+00 1.7694495E+03
3.7827678E+00 1.6487244E+03
3.7914538E+00 1.5387836E+03
3.8001399E+00 1.4360415E+03
3.8088262E+00 1.3385236E+03
3.8175123E+00 1.2449741E+03
3.8261981E+00 1.1564722E+03
3.8348842E+00 1.0758960E+03
3.8435700E+00 1.0041730E+03
3.8522561E+00 9.4334894E+02
3.8609421E+00 8.9474951E+02
3.8696280E+00 8.5771814E+02
3.8783145E+00 8.3262207E+02
3.8870003E+00 8.1794843E+02
3.8956864E+00 8.1068652E+02
3.9043725E+00 8.1051196E+02
3.9130583E+00 8.1810693E+02
3.9217446E+00 8.3201196E+02
3.9304304E+00 8.4910785E+02
3.9391162E+00 8.6881500E+02
3.9478028E+00 8.9092078E+02
3.9564886E+00 9.1336023E+02
3.9651747E+00 9.3581836E+02
3.9738607E+00 9.6512750E+02
3.9825466E+00 9.9806689E+02
3.9912326E+00 1.0095032E+03
3.9999187E+00 1.0281125E+03
4.0086050E+00 1.0754897E+03
4.0172911E+00 1.1507584E+03
4.0259767E+00 1.2572262E+03
4.0346632E+00 1.3976914E+03
4.0433488E+00 1.5721957E+03
4.0520349E+00 1.7744481E+03
4.0607209E+00 1.9970175E+03
4.0694070E+00 2.1995391E+03
4.0780935E+00 2.3598123E+03
4.0867791E+00 2.4957407E+03
4.0954652E+00 2.6146101E+03
4.1041512E+00 2.6997114E+03
4.1128373E+00 2.7501790E+03
4.1215234E+00 2.7732827E+03
4.1302090E+00 2.8015107E+03
4.1388950E+00 2.8787588E+03
4.1475816E+00 2.9178523E+03
4.1562672E+00 2.8385176E+03
4.1649537E+00 2.7244980E+03
4.1736393E+00 2.6768059E+03
4.1823254E+00 2.6674031E+03
4.1910114E+00 2.6834880E+03
4.1996975E+00 2.7217476E+03
4.2083840E+00 2.7059224E+03
4.2170696E+00 2.5780544E+03
4.2257557E+00 2.4737939E+03
4.2344418E+00 2.3621833E+03
4.2431278E+00 2.2210457E+03
4.2518139E+00 2.0559141E+03
4.2604995E+00 1.8778181E+03
4.2691855E+00 1.6984188E+03
4.2778721E+00 1.5314850E+03
4.2865582E+00 1.3839109E+03
4.2952442E+00 1.2596152E+03
4.3039298E+00 1.1590778E+03
4.3126159E+00 1.0817305E+03
4.3213019E+00 1.0239146E+03
4.3299880E+00 9.7904663E+02
4.3386745E+00 9.3902667E+02
4.3473601E+00 8.9338086E+02
4.3560462E+00 8.5132141E+02
4.3647323E+00 8.1756311E+02
4.3734183E+00 7.8257422E+02
4.3821044E+00 7.5891888E+02
4.3907905E+00 7.4391748E+02
4.3994761E+00 7.2918628E+02
4.4081626E+00 7.1855896E+02
4.4168487E+00 7.1034296E+02
4.4255347E+00 7.0555267E+02
4.4342208E+00 7.1003705E+02
4.4429064E+00 7.4174603E+02
4.4515924E+00 8.0526556E+02
4.4602785E+00 8.2764508E+02
4.4689646E+00 8.1374561E+02
4.4776506E+00 8.0727496E+02
4.4863367E+00 8.0818463E+02
4.4950228E+00 8.1345410E+02
4.5037088E+00 8.1505066E+02
4.5123944E+00 8.2131134E+02
4.5210810E+00 8.2997131E+02
4.5297666E+00 8.1933545E+02
4.5384531E+00 7.9668616E+02
4.5471392E+00 7.7177667E+02
4.5558248E+00 7.4561639E+02
4.5645113E+00 7.2118268E+02
4.5731969E+00 6.9831500E+02
4.5818830E+00 6.7646594E+02
4.5905690E+00 6.5543396E+02
4.5992551E+00 6.3675067E+02
4.6079416E+00 6.2283496E+02
4.6166272E+00 6.0980054E+02
4.6253133E+00 6.0028046E+02
4.6339993E+00 5.9377185E+02
4.6426854E+00 5.9165948E+02
4.6513715E+00 5.9420160E+02
4.6600571E+00 6.0126282E+02
4.6687436E+00 6.1280981E+02
4.6774292E+00 6.2885651E+02
4.6861153E+00 6.5022601E+02
4.6948018E+00 6.7726031E+02
4.7034874E+00 7.0405322E+02
4.7121739E+00 7.2982056E+02
4.7208595E+00 7.5546942E+02
4.7295456E+00 7.8082166E+02
4.7382321E+00 8.0355304E+02
4.7469177E+00 8.2145209E+02
4.7556038E+00 8.3282184E+02
4.7642899E+00 8.3775024E+02
4.7729759E+00 8.3602533E+02
4.7816620E+00 8.2813989E+02
4.7903481E+00 8.1461066E+02
4.7990336E+00 7.9602319E+02
4.8077197E+00 7.7427045E+02
4.8164058E+00 7.4997009E+02
4.8250923E+00 7.2408527E+02
4.8337779E+00 6.9977759E+02
4.8424640E+00 6.7662738E+02
4.8511500E+00 6.5633258E+02
4.8598361E+00 6.3553790E+02
4.8685222E+00 6.1255420E+02
4.8772082E+00 5.9190509E+02
4.8858938E+00 5.7564233E+02
4.8945804E+00 5.6540833E+02
4.9032664E+00 5.5950757E+02
4.9119525E+00 5.5734045E+02
4.9206386E+00 5.5762756E+02
4.9293242E+00 5.5975464E+02
4.9380102E+00 5.6306055E+02
4.9466963E+00 5.6606677E+02
4.9553828E+00 5.6817548E+02
4.9640689E+00 5.6882831E+02
4.9727545E+00 5.6789703E+02
4.9814405E+00 5.6564478E+02
4.9901266E+00 5.6309113E+02
4.9988127E+00 5.6051752E+02
5.0074987E+00 5.5816333E+02
5.0161843E+00 5.5653723E+02
5.0248709E+00 5.5661029E+02
5.0335569E+00 5.6191705E+02
5.0422430E+00 5.7308203E+02
5.0509291E+00 5.8169916E+02
5.0596147E+00 5.8782623E+02
5.0683012E+00 5.9515332E+02
5.0769868E+00 5.9843195E+02
5.0856729E+00 5.9922314E+02
5.0943594E+00 6.0127478E+02
5.1030450E+00 6.0466925E+02
5.1117315E+00 6.0777051E+02
5.1204171E+00 6.0165015E+02
5.1291027E+00 5.9668988E+02
5.1377897E+00 5.9517725E+02
5.1464753E+00 5.9565826E+02
5.1551614E+00 5.9840271E+02
5.1638474E+00 6.0385907E+02
5.1725330E+00 6.1262042E+02
5.1812196E+00 6.3133539E+02
5.1899052E+00 6.6062909E+02
5.1985917E+00 6.7646881E+02
5.2072778E+00 6.7692639E+02
5.2159634E+00 6.8481641E+02
5.2246494E+00 6.9908923E+02
5.2333355E+00 7.1999963E+02
5.2420220E+00 7.4309802E+02
5.2507081E+00 7.6295245E+02
5.2593937E+00 7.7525610E+02
5.2680798E+00 7.8065094E+02
5.2767658E+00 7.8133752E+02
5.2854519E+00 7.8220685E+02
5.2941375E+00 7.8080389E+02
5.3028240E+00 7.7574103E+02
5.3115101E+00 7.6974957E+02
5.3201957E+00 7.6272699E+02
5.3288822E+00 7.5582404E+02
5.3375678E+00 7.4969470E+02
5.3462543E+00 7.4613251E+02
5.3549404E+00 7.4490106E+02
5.3636260E+00 7.4754712E+02
5.3723121E+00 7.5796307E+02
5.3809981E+00 7.7767450E+02
5.3896837E+00 8.0855176E+02
5.3983707E+00 8.4998529E+02
5.4070563E+00 9.0068237E+02
5.4157424E+00 9.5812738E+02
5.4244285E+00 1.0194467E+03
5.4331141E+00 1.0817911E+03
5.4418001E+00 1.1408108E+03
5.4504867E+00 1.1954830E+03
5.4591722E+00 1.2432864E+03
5.4678588E+00 1.2833762E+03
5.4765444E+00 1.3168746E+03
5.4852304E+00 1.3493534E+03
5.4939170E+00 1.3896732E+03
5.5026026E+00 1.4240095E+03
5.5112886E+00 1.4350762E+03
5.5199747E+00 1.4468018E+03
5.5286608E+00 1.4616630E+03
5.5373468E+00 1.4800220E+03
5.5460324E+00 1.4962498E+03
5.5547190E+00 1.5011958E+03
5.5634050E+00 1.4978234E+03
5.5720911E+00 1.4856876E+03
5.5807767E+00 1.4627383E+03
5.5894628E+00 1.4246680E+03
5.5981493E+00 1.3771587E+03
5.6068354E+00 1.3249398E+03
5.6155214E+00 1.2758658E+03
5.6242070E+00 1.2199099E+03
5.6328931E+00 1.1440358E+03
5.6415792E+00 1.0741562E+03
5.6502647E+00 1.0128325E+03
5.6589518E+00 9.6571051E+02
5.6676373E+00 9.3595831E+02
5.6763234E+00 9.1784674E+02
5.6850095E+00 9.0983374E+02
5.6936951E+00 9.1215979E+02
5.7023816E+00 9.1769537E+02
5.7110677E+00 9.2729041E+02
5.7197533E+00 9.4575470E+02
5.7284398E+00 9.5674463E+02
5.7371254E+00 9.5064508E+02
5.7458119E+00 9.4721619E+02
5.7544980E+00 9.5363879E+02
5.7631836E+00 9.6659692E+02
5.7718697E+00 9.8579492E+02
5.7805557E+00 1.0117281E+03
5.7892413E+00 1.0466719E+03
5.7979283E+00 1.0868169E+03
5.8066139E+00 1.1313207E+03
5.8153000E+00 1.1797128E+03
5.8239861E+00 1.2304734E+03
5.8326716E+00 1.2807062E+03
5.8413577E+00 1.3290803E+03
5.8500443E+00 1.3723806E+03
5.8587303E+00 1.4050352E+03
5.8674164E+00 1.4227816E+03
5.8761020E+00 1.4265469E+03
5.8847880E+00 1.4194869E+03
5.8934741E+00 1.4044996E+03
5.9021606E+00 1.3787018E+03
5.9108462E+00 1.3478934E+03
5.9195323E+00 1.3136511E+03
5.9282184E+00 1.2789639E+03
5.9369044E+00 1.2452365E+03
5.9455910E+00 1.2159364E+03
5.9542766E+00 1.1892504E+03
5.9629626E+00 1.1696849E+03
5.9716487E+00 1.1615791E+03
5.9803343E+00 1.1549323E+03
5.9890213E+00 1.1430645E+03
5.9977064E+00 1.1316875E+03
6.0063930E+00 1.1224250E+03
6.0150790E+00 1.1083621E+03
6.0237646E+00 1.0918943E+03
6.0324507E+00 1.0720371E+03
6.0411367E+00 1.0481687E+03
6.0498223E+00 1.0212352E+03
6.0585093E+00 9.9080420E+02
6.0671949E+00 9.5537933E+02
6.0758810E+00 9.1804346E+02
6.0845671E+00 8.8247705E+02
6.0932527E+00 8.5132001E+02
6.1019392E+00 8.2465564E+02
6.1106253E+00 7.9810962E+02
6.1193109E+00 7.7389148E+02
6.1279974E+00 7.5537085E+02
6.1366830E+00 7.4292047E+02
6.1453691E+00 7.3220123E+02
6.1540556E+00 7.2220050E+02
6.1627412E+00 7.1138617E+02
6.1714272E+00 7.0205127E+02
6.1801133E+00 6.9530878E+02
6.1887994E+00 6.9035596E+02
6.1974859E+00 6.8866266E+02
6.2061715E+00 6.8926837E+02
6.2148576E+00 6.9189935E+02
6.2235436E+00 6.9693506E+02
6.2322297E+00 7.0409503E+02
6.2409153E+00 7.1158167E+02
6.2496014E+00 7.2034253E+02
6.2582879E+00 7.2751318E+02
6.2669740E+00 7.3209912E+02
6.2756600E+00 7.3371881E+02
6.2843456E+00 7.3318286E+02
6.2930317E+00 7.2959949E+02
6.3017182E+00 7.2359070E+02
6.3104038E+00 7.1532214E+02
6.3190904E+00 7.0642548E+02
6.3277760E+00 6.9729694E+02
6.3364615E+00 6.9040491E+02
6.3451486E+00 6.9638312E+02
6.3538342E+00 7.0663348E+02
6.3625202E+00 6.9997827E+02
6.3712063E+00 6.8562061E+02
6.3798919E+00 6.7430273E+02
6.3885784E+00 6.6328259E+02
6.3972640E+00 6.6091583E+02
6.4059496E+00 6.5344659E+02
6.4146366E+00 6.5550891E+02
6.4233222E+00 6.3527802E+02
6.4320083E+00 6.3572803E+02
6.4406943E+00 6.4025287E+02
6.4493799E+00 6.4183240E+02
6.4580669E+00 6.4305597E+02
6.4667525E+00 6.4895624E+02
6.4754386E+00 6.5949640E+02
6.4841247E+00 6.7260504E+02
6.4928102E+00 6.9206348E+02
6.5014963E+00 7.2118164E+02
6.5101829E+00 7.4340411E+02
6.5188689E+00 7.5818085E+02
6.5275545E+00 7.7747363E+02
6.5362406E+00 8.0352802E+02
6.5449266E+00 8.3165515E+02
6.5536132E+00 8.5942822E+02
6.5622993E+00 8.7859344E+02
6.5709848E+00 8.9144891E+02
6.5796709E+00 9.0096173E+02
6.5883570E+00 9.0657098E+02
6.5970426E+00 9.0709186E+02
6.6057296E+00 9.0271381E+02
6.6144152E+00 8.9384442E+02
6.6231012E+00 8.8260309E+02
6.6317873E+00 8.7101288E+02
6.6404729E+00 8.5918176E+02
6.6491590E+00 8.4770105E+02
6.6578455E+00 8.3498749E+02
6.6665311E+00 8.1207739E+02
6.6752176E+00 7.8497858E+02
6.6839032E+00 7.5972766E+02
6.6925893E+00 7.4193176E+02
6.7012758E+00 7.2858923E+02
6.7099614E+00 7.1704901E+02
6.7186475E+00 7.0735828E+02
6.7273335E+00 6.9824384E+02
6.7360191E+00 6.8887952E+02
6.7447057E+00 6.7886810E+02
6.7533913E+00 6.6845148E+02
6.7620778E+00 6.5989838E+02
6.7707639E+00 6.5330432E+02
6.7794495E+00 6.4909375E+02
6.7881355E+00 6.4710706E+02
6.7968216E+00 6.4844586E+02
6.8055081E+00 6.5271094E+02
6.8141942E+00 6.5969263E+02
6.8228798E+00 6.6871979E+02
6.8315659E+00 6.8057458E+02
6.8402519E+00 6.9448145E+02
6.8489380E+00 7.1057477E+02
6.8576236E+00 7.3502466E+02
6.8663101E+00 7.5234100E+02
6.8749962E+00 7.6893195E+02
6.8836823E+00 7.8703009E+02
6.8923683E+00 8.0767285E+02
6.9010539E+00 8.3004858E+02
6.9097404E+00 8.5247308E+02
6.9184265E+00 8.7246863E+02
6.9271121E+00 8.8791827E+02
6.9357986E+00 8.9707678E+02
6.9444842E+00 8.9956433E+02
6.9531708E+00 8.9765485E+02
6.9618568E+00 8.9260999E+02
6.9705424E+00 8.8510919E+02
6.9792285E+00 8.7563196E+02
6.9879146E+00 8.6388434E+02
6.9966002E+00 8.4805737E+02
7.0052872E+00 8.2702393E+02
7.0139728E+00 8.0822772E+02
7.0226588E+00 7.9161249E+02
7.0313449E+00 7.7685004E+02
7.0400305E+00 7.6581628E+02
7.0487165E+00 7.5948999E+02
7.0574031E+00 7.5665698E+02
7.0660887E+00 7.4895380E+02
7.0747752E+00 7.3756543E+02
7.0834608E+00 7.2613239E+02
7.0921469E+00 7.1929578E+02
7.1008329E+00 7.1712744E+02
7.1095185E+00 7.1867432E+02
7.1182051E+00 7.2227594E+02
7.1268911E+00 7.2956464E+02
7.1355772E+00 7.4013910E+02
7.1442633E+00 7.5578345E+02
7.1529489E+00 7.7501752E+02
7.1616354E+00 7.9493402E+02
7.1703215E+00 8.1470618E+02
7.1790075E+00 8.3385858E+02
7.1876931E+00 8.5099451E+02
7.1963792E+00 8.6410419E+02
7.2050653E+00 8.7281799E+02
7.2137518E+00 8.7636340E+02
7.2224374E+00 8.7177081E+02
7.2311234E+00 8.6109991E+02
7.2398095E+00 8.4416565E+02
7.2484951E+00 8.2392828E+02
7.2571812E+00 7.9940265E+02
7.2658682E+00 7.7218634E+02
7.2745533E+00 7.4867114E+02
7.2832398E+00 7.2599133E+02
7.2919259E+00 7.0088190E+02
7.3006124E+00 6.7598364E+02
7.3092980E+00 6.5840985E+02
7.3179841E+00 6.4809332E+02
7.3266702E+00 6.4302814E+02
7.3353558E+00 6.4232764E+02
7.3440418E+00 6.4760809E+02
7.3527279E+00 6.6686182E+02
7.3614135E+00 6.7819830E+02
7.3701000E+00 6.7574915E+02
7.3787861E+00 6.6755768E+02
7.3874726E+00 6.6757385E+02
7.3961577E+00 6.7014117E+02
7.4048448E+00 6.7406781E+02
7.4135308E+00 6.8115027E+02
7.4222164E+00 6.8871576E+02
7.4309025E+00 6.9889905E+02
7.4395885E+00 7.0542505E+02
7.4482741E+00 7.1061340E+02
7.4569602E+00 7.1723395E+02
7.4656467E+00 7.2554456E+02
7.4743323E+00 7.3471051E+02
7.4830184E+00 7.4680151E+02
7.4917045E+00 7.5990143E+02
7.5003905E+00 7.7103485E+02
7.5090761E+00 7.7677795E+02
7.5177627E+00 7.8212836E+02
7.5264492E+00 7.8617340E+02
7.5351343E+00 7.8859467E+02
7.5438204E+00 7.8744751E+02
7.5525074E+00 7.8180023E+02
7.5611920E+00 7.7345007E+02
7.5698791E+00 7.6811798E+02
7.5785651E+00 7.6203229E+02
7.5872512E+00 7.6346252E+02
7.5959368E+00 7.5094739E+02
7.6046228E+00 7.3816736E+02
7.6133094E+00 7.3118073E+02
7.6219950E+00 7.2414355E+02
7.6306810E+00 7.2050067E+02
7.6393671E+00 7.2100299E+02
7.6480527E+00 7.2277960E+02
7.6567388E+00 7.2331354E+02
7.6654258E+00 7.2430402E+02
7.6741118E+00 7.2671069E+02
7.6827970E+00 7.3338263E+02
7.6914835E+00 7.4213879E+02
7.7001696E+00 7.5068268E+02
7.7088552E+00 7.5516663E+02
7.7175417E+00 7.7501532E+02
7.7262278E+00 7.9841046E+02
7.7349133E+00 8.2515680E+02
7.7435994E+00 8.5552026E+02
7.7522855E+00 8.8628925E+02
7.7609720E+00 9.1604803E+02
7.7696576E+00 9.4192749E+02
7.7783437E+00 9.6312006E+02
7.7870297E+00 9.7814496E+02
7.7957153E+00 9.8589581E+02
7.8044014E+00 9.8370831E+02
7.8130884E+00 9.7219128E+02
7.8217731E+00 9.5142682E+02
7.8304601E+00 9.2553839E+02
7.8391461E+00 8.9546783E+02
7.8478317E+00 8.6352576E+02
7.8565178E+00 8.3150061E+02
7.8652043E+00 8.0125146E+02
7.8738904E+00 7.7429089E+02
7.8825760E+00 7.4716620E+02
7.8912621E+00 7.2554156E+02
7.8999481E+00 7.1487305E+02
7.9086337E+00 7.0730835E+02
7.9173198E+00 7.0502167E+02
7.9260063E+00 7.0472742E+02
7.9346919E+00 7.0161792E+02
7.9433780E+00 7.0256580E+02
7.9520645E+00 7.0627216E+02
7.9607511E+00 7.1159406E+02
7.9694366E+00 7.1817902E+02
7.9781227E+00 7.2670367E+02
7.9868088E+00 7.3956073E+02
7.9954944E+00 7.4979877E+02
8.0041809E+00 7.5729651E+02
8.0128670E+00 7.6279358E+02
8.0215521E+00 7.6963324E+02
8.0302382E+00 7.7480841E+02
8.0389242E+00 7.7588263E+02
8.0476112E+00 7.7222699E+02
8.0562963E+00 7.6635193E+02
8.0649824E+00 7.5861938E+02
8.0736694E+00 7.5029651E+02
8.0823545E+00 7.3984131E+02
8.0910416E+00 7.2702441E+02
8.0997276E+00 7.0979907E+02
8.1084127E+00 6.9128857E+02
8.1170988E+00 6.7312939E+02
8.1257849E+00 6.5800562E+02
8.1344709E+00 6.4506946E+02
8.1431570E+00 6.3505688E+02
8.1518431E+00 6.2734143E+02
8.1605291E+00 6.2133765E+02
8.1692152E+00 6.1620215E+02
8.1779013E+00 6.1176093E+02
8.1865873E+00 6.0765253E+02
8.1952724E+00 6.0504749E+02
8.2039595E+00 6.0941083E+02
8.2126455E+00 6.1156512E+02
8.2213306E+00 6.1359833E+02
8.2300177E+00 6.1632977E+02
8.2387037E+00 6.2239746E+02
8.2473898E+00 6.3143237E+02
8.2560759E+00 6.4392603E+02
8.2647619E+00 6.6071857E+02
8.2734480E+00 6.8340015E+02
8.2821331E+00 7.0483331E+02
8.2908192E+00 7.1377863E+02
8.2995062E+00 7.2304767E+02
8.3081913E+00 7.3201227E+02
8.3168774E+00 7.3815521E+02
8.3255634E+00 7.4034949E+02
8.3342505E+00 7.3935632E+02
8.3429356E+00 7.3422815E+02
8.3516226E+00 7.2635596E+02
8.3603086E+00 7.1592609E+02
8.3689938E+00 7.0413654E+02
8.3776798E+00 6.9078943E+02
8.3863668E+00 6.7768494E+02
8.3950520E+00 6.6401251E+02
8.4037380E+00 6.5247882E+02
8.4124241E+00 6.4259442E+02
8.4211102E+00 6.3557587E+02
8.4297962E+00 6.3120911E+02
8.4384823E+00 6.3183350E+02
8.4471684E+00 6.3475043E+02
8.4558544E+00 6.4085046E+02
8.4645405E+00 6.4939917E+02
8.4732265E+00 6.6005011E+02
8.4819117E+00 6.7085236E+02
8.4905987E+00 6.7491089E+02
8.4992847E+00 6.7521582E+02
8.5079699E+00 6.7653046E+02
8.5166569E+00 6.8054999E+02
8.5253429E+00 6.8567725E+02
8.5340290E+00 6.8057849E+02
8.5427141E+00 6.7480798E+02
8.5514011E+00 6.6685773E+02
8.5600872E+00 6.6035760E+02
8.5687723E+00 6.5438666E+02
8.5774584E+00 6.4826636E+02
8.5861444E+00 6.4204431E+02
8.5948305E+00 6.3580200E+02
8.6035166E+00 6.3108368E+02
8.6122036E+00 6.2798529E+02
8.6208897E+00 6.2584210E+02
8.6295748E+00 6.2301257E+02
8.6382618E+00 6.1910541E+02
8.6469479E+00 6.1644086E+02
8.6556330E+00 6.1536566E+02
8.6643190E+00 6.1627808E+02
8.6730051E+00 6.1753491E+02
8.6816912E+00 6.2306329E+02
8.6903772E+00 6.2546527E+02
8.6990633E+00 6.2410333E+02
8.7077494E+00 6.2006274E+02
8.7164354E+00 6.1743451E+02
8.7251215E+00 6.1792706E+02
8.7338085E+00 6.2149792E+02
8.7424927E+00 6.2718457E+02
8.7511787E+00 6.3465033E+02
8.7598658E+00 6.4321667E+02
8.7685509E+00 6.5254272E+02
8.7772379E+00 6.6207623E+02
8.7859240E+00 6.7001013E+02
8.7946091E+00 6.7011749E+02
8.8032961E+00 6.6934814E+02
8.8119822E+00 6.6733112E+02
8.8206682E+00 6.6624908E+02
8.8293533E+00 6.7579431E+02
8.8380394E+00 6.7810974E+02
8.8467264E+00 6.7806171E+02
8.8554115E+00 6.7427148E+02
8.8640976E+00 6.6960571E+02
8.8727846E+00 6.6149561E+02
8.8814697E+00 6.5413562E+02
8.8901558E+00 6.4519397E+02
8.8988428E+00 6.3676813E+02
8.9075289E+00 6.2883972E+02
8.9162140E+00 6.2209015E+02
8.9249001E+00 6.1594592E+02
8.9335861E+00 6.1009009E+02
8.9422722E+00 6.0550336E+02
8.9509583E+00 6.0127148E+02
8.9596443E+00 6.0011212E+02
8.9683304E+00 5.9952545E+02
8.9770164E+00 6.0041046E+02
8.9857025E+00 6.0255255E+02
8.9943886E+00 6.0497888E+02
9.0030737E+00 6.0832452E+02
9.0117607E+00 6.1351752E+02
9.0204468E+00 6.1909601E+02
9.0291319E+00 6.2482831E+02
9.0378189E+00 6.3007776E+02
9.0465050E+00 6.3688171E+02
9.0551910E+00 6.4322729E+02
9.0638771E+00 6.4567358E+02
9.0725632E+00 6.4575861E+02
9.0812483E+00 6.4310657E+02
9.0899343E+00 6.3976343E+02
9.0986214E+00 6.3535114E+02
9.1073074E+00 6.3003851E+02
9.1159925E+00 6.2436896E+02
9.1246786E+00 6.1805585E+02
9.1333647E+00 6.1124725E+02
9.1420507E+00 6.0246112E+02
9.1507368E+00 5.9565576E+02
9.1594238E+00 5.8918970E+02
9.1681089E+00 5.8489624E+02
9.1767950E+00 5.7915051E+02
9.1854811E+00 5.7673859E+02
9.1941681E+00 5.7409137E+02
9.2028532E+00 5.7246271E+02
9.2115393E+00 5.6970935E+02
9.2202253E+00 5.6951416E+02
9.2289114E+00 5.6879456E+02
9.2375975E+00 5.6949707E+02
9.2462835E+00 5.6968054E+02
9.2549686E+00 5.7172479E+02
9.2636557E+00 5.7490167E+02
9.2723417E+00 5.8042242E+02
9.2810278E+00 5.8093982E+02
9.2897129E+00 5.7592438E+02
9.2983999E+00 5.7131732E+02
9.3070860E+00 5.7033429E+02
9.3157721E+00 5.6914282E+02
9.3244581E+00 5.6802917E+02
9.3331442E+00 5.6713336E+02
9.3418293E+00 5.6592517E+02
9.3505163E+00 5.6650360E+02
9.3592024E+00 5.6806274E+02
9.3678885E+00 5.7002795E+02
9.3765736E+00 5.6866718E+02
9.3852596E+00 5.6704059E+02
9.3939457E+00 5.6577942E+02
9.4026318E+00 5.6694635E+02
9.4113178E+00 5.6663702E+02
9.4200048E+00 5.6700336E+02
9.4286900E+00 5.6618610E+02
9.4373760E+00 5.6606464E+02
9.4460630E+00 5.6478058E+02
9.4547482E+00 5.6426221E+02
9.4634342E+00 5.6291760E+02
9.4721203E+00 5.6314874E+02
9.4808064E+00 5.6330176E+02
9.4894924E+00 5.6482617E+02
9.4981785E+00 5.6640271E+02
9.5068645E+00 5.6795300E+02
9.5155506E+00 5.6987457E+02
9.5242367E+00 5.7252106E+02
9.5329227E+00 5.7538879E+02
9.5416079E+00 5.7903369E+02
9.5502939E+00 5.8285028E+02
9.5589809E+00 5.8584265E+02
9.5676670E+00 5.8892523E+02
9.5763531E+00 5.9110077E+02
9.5850391E+00 5.9201013E+02
9.5937252E+00 5.9104871E+02
9.6024103E+00 5.9036914E+02
9.6110973E+00 5.9058502E+02
9.6197834E+00 5.9248816E+02
9.6284685E+00 5.9072528E+02
9.6371546E+00 5.8384192E+02
9.6458406E+00 5.7533252E+02
9.6545277E+00 5.7059906E+02
9.6632128E+00 5.6783459E+02
9.6718988E+00 5.6668469E+02
9.6805859E+00 5.6743939E+02
9.6892710E+00 5.6899951E+02
9.6979580E+00 5.7126099E+02
9.7066441E+00 5.7517798E+02
9.7153282E+00 5.7715729E+02
9.7240152E+00 5.7985309E+02
9.7327013E+00 5.8047009E+02
9.7413874E+00 5.8140088E+02
9.7500734E+00 5.8077557E+02
9.7587595E+00 5.8101770E+02
9.7674456E+00 5.7789148E+02
9.7761316E+00 5.7520245E+02
9.7848177E+00 5.6850220E+02
9.7935038E+00 5.6404620E+02
9.8021889E+00 5.5635535E+02
9.8108759E+00 5.4965692E+02
9.8195620E+00 5.4159283E+02
9.8282471E+00 5.3464209E+02
9.8369341E+00 5.2840668E+02
9.8456202E+00 5.2232318E+02
