L=2,4|T=3,1|O=1|d=3.736|a=0.0976|b=0.0680
1.0
   8.1761550739920139    0.0000000000000000    0.0000000000000000
   0.0000000000000000    8.2176550739920131    0.0000000000000000
   0.0000000000000000    0.0000000000000000  110.9372000000000043
Cs Pb S Br
8 40 24 40
direct
   0.5000000000000000    0.0000000000000000    0.3010992451730214 Cs
   0.0000000000000000    0.5000000000000000    0.3010992451730214 Cs
   0.5000000000000000    0.0000000000000000    0.3545097355190643 Cs
   0.0000000000000000    0.5000000000000000    0.3545097355190643 Cs
   0.5000000000000000    0.0000000000000000    0.4079202258651072 Cs
   0.0000000000000000    0.5000000000000000    0.4079202258651072 Cs
   0.5000000000000000    0.0000000000000000    0.4613307162111503 Cs
   0.0000000000000000    0.5000000000000000    0.4613307162111503 Cs
   0.0000000000000000    0.0000000000000000    0.2743940000000000 Pb
   0.5000000000000000    0.5000000000000000    0.2743940000000000 Pb
   0.0000000000000000    0.0000000000000000    0.3278044903460429 Pb
   0.5000000000000000    0.5000000000000000    0.3278044903460429 Pb
   0.0000000000000000    0.0000000000000000    0.3812149806920858 Pb
   0.5000000000000000    0.5000000000000000    0.3812149806920858 Pb
   0.0000000000000000    0.0000000000000000    0.4346254710381288 Pb
   0.5000000000000000    0.5000000000000000    0.4346254710381288 Pb
   0.2035880168289463    0.8193283689146810    0.4950075757162106 Pb
   0.2975880168289463    0.3193283689146810    0.4950075757162106 Pb
   0.6503880168289462    0.6136283689146810    0.4950075757162106 Pb
   0.8507880168289462    0.1136283689146810    0.4950075757162106 Pb
   0.4724880168289465    0.9571283689146812    0.5227856052332838 Pb
   0.0286880168289467    0.4571283689146810    0.5227856052332838 Pb
   0.5286880168289465    0.5409283689146810    0.5326511889619098 Pb
   0.9724880168289463    0.0409283689146813    0.5326511889619098 Pb
   0.1503880168289463    0.3844283689146810    0.5604292184789829 Pb
   0.3507880168289463    0.8844283689146812    0.5604292184789829 Pb
   0.7035880168289462    0.1787283689146810    0.5604292184789829 Pb
   0.7975880168289464    0.6787283689146815    0.5604292184789829 Pb
   0.5286880168289465    0.5409283689146810    0.5882072479960559 Pb
   0.9724880168289463    0.0409283689146813    0.5882072479960559 Pb
   0.4724880168289465    0.9571283689146812    0.5980728317246820 Pb
   0.0286880168289467    0.4571283689146810    0.5980728317246820 Pb
   0.2035880168289463    0.8193283689146810    0.6258508612417553 Pb
   0.2975880168289463    0.3193283689146810    0.6258508612417553 Pb
   0.6503880168289462    0.6136283689146810    0.6258508612417553 Pb
   0.8507880168289462    0.1136283689146810    0.6258508612417553 Pb
   0.4724880168289465    0.9571283689146812    0.6536288907588281 Pb
   0.0286880168289467    0.4571283689146810    0.6536288907588281 Pb
   0.5286880168289465    0.5409283689146810    0.6634944744874540 Pb
   0.9724880168289463    0.0409283689146813    0.6634944744874540 Pb
   0.1503880168289463    0.3844283689146810    0.6912725040045273 Pb
   0.3507880168289463    0.8844283689146812    0.6912725040045273 Pb
   0.7035880168289462    0.1787283689146810    0.6912725040045273 Pb
   0.7975880168289464    0.6787283689146815    0.6912725040045273 Pb
   0.5286880168289465    0.5409283689146810    0.7190505335216004 Pb
   0.9724880168289463    0.0409283689146813    0.7190505335216004 Pb
   0.4724880168289465    0.9571283689146812    0.7289161172502263 Pb
   0.0286880168289467    0.4571283689146810    0.7289161172502263 Pb
   0.4915880168289463    0.9620283689146812    0.4950075757162106 S
   0.0095880168289464    0.4620283689146815    0.4950075757162106 S
   0.0975880168289463    0.0680283689146810    0.5104470834082250 S
   0.4035880168289464    0.5680283689146812    0.5104470834082250 S
   0.5975880168289462    0.9300283689146811    0.5449897107869688 S
   0.9035880168289463    0.4300283689146810    0.5449897107869688 S
   0.5095880168289463    0.5360283689146810    0.5604292184789829 S
   0.9915880168289463    0.0360283689146810    0.5604292184789829 S
   0.5975880168289462    0.9300283689146811    0.5758687261709970 S
   0.9035880168289463    0.4300283689146810    0.5758687261709970 S
   0.0975880168289463    0.0680283689146810    0.6104113535497409 S
   0.4035880168289464    0.5680283689146812    0.6104113535497409 S
   0.4915880168289463    0.9620283689146812    0.6258508612417553 S
   0.0095880168289464    0.4620283689146815    0.6258508612417553 S
   0.0975880168289463    0.0680283689146810    0.6412903689337693 S
   0.4035880168289464    0.5680283689146812    0.6412903689337693 S
   0.5975880168289462    0.9300283689146811    0.6758329963125130 S
   0.9035880168289463    0.4300283689146810    0.6758329963125130 S
   0.5095880168289463    0.5360283689146810    0.6912725040045273 S
   0.9915880168289463    0.0360283689146810    0.6912725040045273 S
   0.5975880168289462    0.9300283689146811    0.7067120116965416 S
   0.9035880168289463    0.4300283689146810    0.7067120116965416 S
   0.0975880168289463    0.0680283689146810    0.7412546390752854 S
   0.4035880168289464    0.5680283689146812    0.7412546390752854 S
   0.2500000000000000    0.2500000000000000    0.2743940000000000 Br
   0.7500000000000000    0.7500000000000000    0.2743940000000000 Br
   0.2499999999999999    0.7500000000000000    0.2743940000000000 Br
   0.7500000000000000    0.2499999999999999    0.2743940000000000 Br
   0.0000000000000000    0.0000000000000000    0.3010992451730214 Br
   0.5000000000000000    0.5000000000000000    0.3010992451730214 Br
   0.2500000000000000    0.2500000000000000    0.3278044903460429 Br
   0.7500000000000000    0.7500000000000000    0.3278044903460429 Br
   0.2499999999999999    0.7500000000000000    0.3278044903460429 Br
   0.7500000000000000    0.2499999999999999    0.3278044903460429 Br
   0.0000000000000000    0.0000000000000000    0.3545097355190643 Br
   0.5000000000000000    0.5000000000000000    0.3545097355190643 Br
   0.2500000000000000    0.2500000000000000    0.3812149806920858 Br
   0.7500000000000000    0.7500000000000000    0.3812149806920858 Br
   0.2499999999999999    0.7500000000000000    0.3812149806920858 Br
   0.7500000000000000    0.2499999999999999    0.3812149806920858 Br
   0.0000000000000000    0.0000000000000000    0.4079202258651072 Br
   0.5000000000000000    0.5000000000000000    0.4079202258651072 Br
   0.2500000000000000    0.2500000000000000    0.4346254710381288 Br
   0.7500000000000000    0.7500000000000000    0.4346254710381288 Br
   0.2499999999999999    0.7500000000000000    0.4346254710381288 Br
   0.7500000000000000    0.2499999999999999    0.4346254710381288 Br
   0.0000000000000000    0.0000000000000000    0.4613307162111503 Br
   0.5000000000000000    0.5000000000000000    0.4613307162111503 Br
   0.6664880168289462    0.2629283689146810    0.5138882618175467 Br
   0.8346880168289464    0.7629283689146812    0.5138882618175467 Br
   0.1664880168289463    0.7351283689146810    0.5415485323776468 Br
   0.3346880168289463    0.2351283689146810    0.5415485323776468 Br
   0.1664880168289463    0.7351283689146810    0.5793099045803191 Br
   0.3346880168289463    0.2351283689146810    0.5793099045803191 Br
   0.6664880168289462    0.2629283689146810    0.6069701751404188 Br
   0.8346880168289464    0.7629283689146812    0.6069701751404188 Br
   0.6664880168289462    0.2629283689146810    0.6447315473430913 Br
   0.8346880168289464    0.7629283689146812    0.6447315473430913 Br
   0.1664880168289463    0.7351283689146810    0.6723918179031914 Br
   0.3346880168289463    0.2351283689146810    0.6723918179031914 Br
   0.1664880168289463    0.7351283689146810    0.7101531901058635 Br
   0.3346880168289463    0.2351283689146810    0.7101531901058635 Br
   0.6664880168289462    0.2629283689146810    0.7378134606659635 Br
   0.8346880168289464    0.7629283689146812    0.7378134606659635 Br
