Cs2 Pb4 S2 Br2
1.0
   8.1761550739920139    0.0000000000000000    0.0000000000000000
   0.0000000000000000    8.2176550739920131    0.0000000000000000
   0.0000000000000000    0.0000000000000000  110.9372000000000043
Cs Pb S Br
2 4 2 2
direct
   0.5000000000000000    0.0000000000000000    0.4613307162111503 Cs
   0.0000000000000000    0.5000000000000000    0.4613307162111503 Cs
   0.2035880168289463    0.8193283689146810    0.4950075757162106 Pb
   0.2975880168289463    0.3193283689146810    0.4950075757162106 Pb
   0.6503880168289462    0.6136283689146810    0.4950075757162106 Pb
   0.8507880168289462    0.1136283689146810    0.4950075757162106 Pb
   0.4915880168289463    0.9620283689146812    0.4950075757162106 S
   0.0095880168289464    0.4620283689146815    0.4950075757162106 S
   0.0000000000000000    0.0000000000000000    0.4613307162111503 Br
   0.5000000000000000    0.5000000000000000    0.4613307162111503 Br
