L=2|T=3|O=True
1.0
   8.0950000000000006    0.0000000000000000    0.0000000000000000
   0.0000000000000000    8.1780000000000008    0.0000000000000000
   0.0000000000000000    0.0000000000000000   58.9279999999999973
Pb S Br
32 24 16
direct
   0.1060000000000000    0.7513000000000000    0.2647500000000000 Pb
   0.2000000000000000    0.2513000000000000    0.2647500000000000 Pb
   0.5528000000000000    0.5456000000000000    0.2647500000000000 Pb
   0.7532000000000000    0.0456000000000000    0.2647500000000000 Pb
   0.3749000000000000    0.8891000000000000    0.3178250000000000 Pb
   0.9311000000000000    0.3891000000000000    0.3178250000000000 Pb
   0.4311000000000000    0.4729000000000000    0.3366750000000000 Pb
   0.8749000000000000    0.9729000000000000    0.3366750000000000 Pb
   0.0528000000000000    0.3164000000000000    0.3897500000000000 Pb
   0.2532000000000000    0.8164000000000000    0.3897500000000000 Pb
   0.6060000000000000    0.1107000000000000    0.3897500000000000 Pb
   0.7000000000000000    0.6107000000000000    0.3897500000000000 Pb
   0.4311000000000000    0.4729000000000000    0.4428250000000000 Pb
   0.8749000000000000    0.9729000000000000    0.4428250000000000 Pb
   0.3749000000000000    0.8891000000000000    0.4616750000000000 Pb
   0.9311000000000000    0.3891000000000000    0.4616750000000000 Pb
   0.1060000000000000    0.7513000000000000    0.5147500000000000 Pb
   0.2000000000000000    0.2513000000000000    0.5147500000000000 Pb
   0.5528000000000000    0.5456000000000000    0.5147500000000000 Pb
   0.7532000000000000    0.0456000000000000    0.5147500000000000 Pb
   0.3749000000000000    0.8891000000000000    0.5678250000000000 Pb
   0.9311000000000000    0.3891000000000000    0.5678250000000000 Pb
   0.4311000000000000    0.4729000000000000    0.5866749999999999 Pb
   0.8749000000000000    0.9729000000000000    0.5866749999999999 Pb
   0.0528000000000000    0.3164000000000000    0.6397500000000000 Pb
   0.2532000000000000    0.8164000000000000    0.6397500000000000 Pb
   0.6060000000000000    0.1107000000000000    0.6397500000000000 Pb
   0.7000000000000000    0.6107000000000000    0.6397500000000000 Pb
   0.4311000000000000    0.4729000000000000    0.6928250000000000 Pb
   0.8749000000000000    0.9729000000000000    0.6928250000000000 Pb
   0.3749000000000000    0.8891000000000000    0.7116749999999999 Pb
   0.9311000000000000    0.3891000000000000    0.7116749999999999 Pb
   0.3940000000000000    0.8940000000000000    0.2647500000000000 S
   0.9120000000000000    0.3940000000000000    0.2647500000000000 S
   0.0000000000000000    0.0000000000000000    0.2942500000000000 S
   0.3060000000000000    0.5000000000000000    0.2942500000000000 S
   0.5000000000000000    0.8620000000000000    0.3602500000000000 S
   0.8060000000000000    0.3620000000000000    0.3602500000000000 S
   0.4120000000000000    0.4680000000000000    0.3897500000000000 S
   0.8940000000000000    0.9680000000000000    0.3897500000000000 S
   0.5000000000000000    0.8620000000000000    0.4192500000000000 S
   0.8060000000000000    0.3620000000000000    0.4192500000000000 S
   0.0000000000000000    0.0000000000000000    0.4852500000000000 S
   0.3060000000000000    0.5000000000000000    0.4852500000000000 S
   0.3940000000000000    0.8940000000000000    0.5147500000000000 S
   0.9120000000000000    0.3940000000000000    0.5147500000000000 S
   0.0000000000000000    0.0000000000000000    0.5442500000000000 S
   0.3060000000000000    0.5000000000000000    0.5442500000000000 S
   0.5000000000000000    0.8620000000000000    0.6102500000000000 S
   0.8060000000000000    0.3620000000000000    0.6102500000000000 S
   0.4120000000000000    0.4680000000000000    0.6397500000000000 S
   0.8940000000000000    0.9680000000000000    0.6397500000000000 S
   0.5000000000000000    0.8620000000000000    0.6692500000000000 S
   0.8060000000000000    0.3620000000000000    0.6692500000000000 S
   0.0000000000000000    0.0000000000000000    0.7352500000000000 S
   0.3060000000000000    0.5000000000000000    0.7352500000000000 S
   0.5689000000000000    0.1949000000000000    0.3008250000000000 Br
   0.7371000000000000    0.6949000000000000    0.3008250000000000 Br
   0.0689000000000000    0.6671000000000000    0.3536750000000000 Br
   0.2371000000000000    0.1671000000000000    0.3536750000000000 Br
   0.0689000000000000    0.6671000000000000    0.4258250000000000 Br
   0.2371000000000000    0.1671000000000000    0.4258250000000000 Br
   0.5689000000000000    0.1949000000000000    0.4786750000000000 Br
   0.7371000000000000    0.6949000000000000    0.4786750000000000 Br
   0.5689000000000000    0.1949000000000000    0.5508250000000000 Br
   0.7371000000000000    0.6949000000000000    0.5508250000000000 Br
   0.0689000000000000    0.6671000000000000    0.6036750000000000 Br
   0.2371000000000000    0.1671000000000000    0.6036750000000000 Br
   0.0689000000000000    0.6671000000000000    0.6758250000000000 Br
   0.2371000000000000    0.1671000000000000    0.6758250000000000 Br
   0.5689000000000000    0.1949000000000000    0.7286750000000000 Br
   0.7371000000000000    0.6949000000000000    0.7286750000000000 Br
