L=2,4|T=3,0|O=1|d=2.969|a=0.5982|b=0.0882
1.0
   8.1761550739920139    0.0000000000000000    0.0000000000000000
   0.0000000000000000    8.2176550739920131    0.0000000000000000
   0.0000000000000000    0.0000000000000000  110.9372000000000043
Cs Pb S Br
8 40 24 40
direct
   0.5000000000000000    0.0000000000000000    0.2743940000000000 Cs
   0.0000000000000000    0.5000000000000000    0.2743940000000000 Cs
   0.5000000000000000    0.0000000000000000    0.3278044903460429 Cs
   0.0000000000000000    0.5000000000000000    0.3278044903460429 Cs
   0.5000000000000000    0.0000000000000000    0.3812149806920858 Cs
   0.0000000000000000    0.5000000000000000    0.3812149806920858 Cs
   0.5000000000000000    0.0000000000000000    0.4346254710381288 Cs
   0.0000000000000000    0.5000000000000000    0.4346254710381288 Cs
   0.0000000000000000    0.0000000000000000    0.3010992451730214 Pb
   0.5000000000000000    0.5000000000000000    0.3010992451730214 Pb
   0.0000000000000000    0.0000000000000000    0.3545097355190643 Pb
   0.5000000000000000    0.5000000000000000    0.3545097355190643 Pb
   0.0000000000000000    0.0000000000000000    0.4079202258651072 Pb
   0.5000000000000000    0.5000000000000000    0.4079202258651072 Pb
   0.0000000000000000    0.0000000000000000    0.4613307162111503 Pb
   0.5000000000000000    0.5000000000000000    0.4613307162111503 Pb
   0.7041608470775291    0.8395244890146445    0.4880940760813068 Pb
   0.7981608470775292    0.3395244890146446    0.4880940760813068 Pb
   0.1509608470775290    0.6338244890146445    0.4880940760813068 Pb
   0.3513608470775292    0.1338244890146445    0.4880940760813068 Pb
   0.9730608470775294    0.9773244890146445    0.5158721055983799 Pb
   0.5292608470775295    0.4773244890146445    0.5158721055983799 Pb
   0.0292608470775291    0.5611244890146445    0.5257376893270060 Pb
   0.4730608470775293    0.0611244890146447    0.5257376893270060 Pb
   0.6509608470775292    0.4046244890146445    0.5535157188440791 Pb
   0.8513608470775291    0.9046244890146448    0.5535157188440791 Pb
   0.2041608470775291    0.1989244890146445    0.5535157188440791 Pb
   0.2981608470775292    0.6989244890146450    0.5535157188440791 Pb
   0.0292608470775291    0.5611244890146445    0.5812937483611521 Pb
   0.4730608470775293    0.0611244890146447    0.5812937483611521 Pb
   0.9730608470775294    0.9773244890146445    0.5911593320897781 Pb
   0.5292608470775295    0.4773244890146445    0.5911593320897781 Pb
   0.7041608470775291    0.8395244890146445    0.6189373616068514 Pb
   0.7981608470775292    0.3395244890146446    0.6189373616068514 Pb
   0.1509608470775290    0.6338244890146445    0.6189373616068514 Pb
   0.3513608470775292    0.1338244890146445    0.6189373616068514 Pb
   0.9730608470775294    0.9773244890146445    0.6467153911239243 Pb
   0.5292608470775295    0.4773244890146445    0.6467153911239243 Pb
   0.0292608470775291    0.5611244890146445    0.6565809748525502 Pb
   0.4730608470775293    0.0611244890146447    0.6565809748525502 Pb
   0.6509608470775292    0.4046244890146445    0.6843590043696235 Pb
   0.8513608470775291    0.9046244890146448    0.6843590043696235 Pb
   0.2041608470775291    0.1989244890146445    0.6843590043696235 Pb
   0.2981608470775292    0.6989244890146450    0.6843590043696235 Pb
   0.0292608470775291    0.5611244890146445    0.7121370338866967 Pb
   0.4730608470775293    0.0611244890146447    0.7121370338866967 Pb
   0.9730608470775294    0.9773244890146445    0.7220026176153227 Pb
   0.5292608470775295    0.4773244890146445    0.7220026176153227 Pb
   0.9921608470775292    0.9822244890146447    0.4880940760813068 S
   0.5101608470775294    0.4822244890146450    0.4880940760813068 S
   0.5981608470775291    0.0882244890146445    0.5035335837733211 S
   0.9041608470775291    0.5882244890146445    0.5035335837733211 S
   0.0981608470775290    0.9502244890146446    0.5380762111520649 S
   0.4041608470775291    0.4502244890146446    0.5380762111520649 S
   0.0101608470775292    0.5562244890146446    0.5535157188440791 S
   0.4921608470775292    0.0562244890146446    0.5535157188440791 S
   0.0981608470775290    0.9502244890146446    0.5689552265360932 S
   0.4041608470775291    0.4502244890146446    0.5689552265360932 S
   0.5981608470775291    0.0882244890146445    0.6034978539148371 S
   0.9041608470775291    0.5882244890146445    0.6034978539148371 S
   0.9921608470775292    0.9822244890146447    0.6189373616068514 S
   0.5101608470775294    0.4822244890146450    0.6189373616068514 S
   0.5981608470775291    0.0882244890146445    0.6343768692988655 S
   0.9041608470775291    0.5882244890146445    0.6343768692988655 S
   0.0981608470775290    0.9502244890146446    0.6689194966776094 S
   0.4041608470775291    0.4502244890146446    0.6689194966776094 S
   0.0101608470775292    0.5562244890146446    0.6843590043696235 S
   0.4921608470775292    0.0562244890146446    0.6843590043696235 S
   0.0981608470775290    0.9502244890146446    0.6997985120616377 S
   0.4041608470775291    0.4502244890146446    0.6997985120616377 S
   0.5981608470775291    0.0882244890146445    0.7343411394403816 S
   0.9041608470775291    0.5882244890146445    0.7343411394403816 S
   0.0000000000000000    0.0000000000000000    0.2743940000000000 Br
   0.5000000000000000    0.5000000000000000    0.2743940000000000 Br
   0.2500000000000000    0.2500000000000000    0.3010992451730214 Br
   0.7500000000000000    0.7500000000000000    0.3010992451730214 Br
   0.2499999999999999    0.7500000000000000    0.3010992451730214 Br
   0.7500000000000000    0.2499999999999999    0.3010992451730214 Br
   0.0000000000000000    0.0000000000000000    0.3278044903460429 Br
   0.5000000000000000    0.5000000000000000    0.3278044903460429 Br
   0.2500000000000000    0.2500000000000000    0.3545097355190643 Br
   0.7500000000000000    0.7500000000000000    0.3545097355190643 Br
   0.2499999999999999    0.7500000000000000    0.3545097355190643 Br
   0.7500000000000000    0.2499999999999999    0.3545097355190643 Br
   0.0000000000000000    0.0000000000000000    0.3812149806920858 Br
   0.5000000000000000    0.5000000000000000    0.3812149806920858 Br
   0.2500000000000000    0.2500000000000000    0.4079202258651072 Br
   0.7500000000000000    0.7500000000000000    0.4079202258651072 Br
   0.2499999999999999    0.7500000000000000    0.4079202258651072 Br
   0.7500000000000000    0.2499999999999999    0.4079202258651072 Br
   0.0000000000000000    0.0000000000000000    0.4346254710381288 Br
   0.5000000000000000    0.5000000000000000    0.4346254710381288 Br
   0.2500000000000000    0.2500000000000000    0.4613307162111503 Br
   0.7500000000000000    0.7500000000000000    0.4613307162111503 Br
   0.2499999999999999    0.7500000000000000    0.4613307162111503 Br
   0.7500000000000000    0.2499999999999999    0.4613307162111503 Br
   0.1670608470775292    0.2831244890146445    0.5069747621826429 Br
   0.3352608470775291    0.7831244890146447    0.5069747621826429 Br
   0.6670608470775291    0.7553244890146446    0.5346350327427429 Br
   0.8352608470775293    0.2553244890146447    0.5346350327427429 Br
   0.6670608470775291    0.7553244890146446    0.5723964049454152 Br
   0.8352608470775293    0.2553244890146447    0.5723964049454152 Br
   0.1670608470775292    0.2831244890146445    0.6000566755055152 Br
   0.3352608470775291    0.7831244890146447    0.6000566755055152 Br
   0.1670608470775292    0.2831244890146445    0.6378180477081875 Br
   0.3352608470775291    0.7831244890146447    0.6378180477081875 Br
   0.6670608470775291    0.7553244890146446    0.6654783182682875 Br
   0.8352608470775293    0.2553244890146447    0.6654783182682875 Br
   0.6670608470775291    0.7553244890146446    0.7032396904709597 Br
   0.8352608470775293    0.2553244890146447    0.7032396904709597 Br
   0.1670608470775292    0.2831244890146445    0.7308999610310597 Br
   0.3352608470775291    0.7831244890146447    0.7308999610310597 Br
