Pb6 S2 Br4
1.0
   8.1761550739920139    0.0000000000000000    0.0000000000000000
   0.0000000000000000    8.2176550739920131    0.0000000000000000
   0.0000000000000000    0.0000000000000000  110.9372000000000043
Pb S Br
6 2 4
direct
   0.0000000000000000    0.0000000000000000    0.4613307162111503 Pb
   0.5000000000000000    0.5000000000000000    0.4613307162111503 Pb
   0.7041608470775291    0.8395244890146445    0.4880940760813068 Pb
   0.7981608470775292    0.3395244890146446    0.4880940760813068 Pb
   0.1509608470775290    0.6338244890146445    0.4880940760813068 Pb
   0.3513608470775292    0.1338244890146445    0.4880940760813068 Pb
   0.9921608470775292    0.9822244890146447    0.4880940760813068 S
   0.5101608470775294    0.4822244890146450    0.4880940760813068 S
   0.2500000000000000    0.2500000000000000    0.4613307162111503 Br
   0.7500000000000000    0.7500000000000000    0.4613307162111503 Br
   0.2499999999999999    0.7500000000000000    0.4613307162111503 Br
   0.7500000000000000    0.2499999999999999    0.4613307162111503 Br
