K-Spacing Value to Generate K-Mesh: 0.040
0
Gamma
   7   7   7
0.0  0.0  0.0
