L=4|T=1|O=True
1.0
   5.8388000000000000    0.0000000000000000    0.0000000000000000
   0.0000000000000000    5.8388000000000000    0.0000000000000000
   0.0000000000000000    0.0000000000000000   58.3879999999999981
Cs Pb Br
4 4 12
direct
   0.5000000000000000    0.5000000000000000    0.3750000000000000 Cs
   0.5000000000000000    0.5000000000000000    0.4750000000000000 Cs
   0.5000000000000000    0.5000000000000000    0.5750000000000000 Cs
   0.5000000000000000    0.5000000000000000    0.6750000000000000 Cs
   0.0000000000000000    0.0000000000000000    0.3250000000000000 Pb
   0.0000000000000000    0.0000000000000000    0.4250000000000000 Pb
   0.0000000000000000    0.0000000000000000    0.5250000000000000 Pb
   0.0000000000000000    0.0000000000000000    0.6250000000000000 Pb
   0.0000000000000000    0.5000000000000000    0.3250000000000000 Br
   0.5000000000000000    0.0000000000000000    0.3250000000000000 Br
   0.0000000000000000    0.0000000000000000    0.3750000000000000 Br
   0.0000000000000000    0.5000000000000000    0.4250000000000000 Br
   0.5000000000000000    0.0000000000000000    0.4250000000000000 Br
   0.0000000000000000    0.0000000000000000    0.4750000000000000 Br
   0.0000000000000000    0.5000000000000000    0.5250000000000000 Br
   0.5000000000000000    0.0000000000000000    0.5250000000000000 Br
   0.0000000000000000    0.0000000000000000    0.5750000000000000 Br
   0.0000000000000000    0.5000000000000000    0.6250000000000000 Br
   0.5000000000000000    0.0000000000000000    0.6250000000000000 Br
   0.0000000000000000    0.0000000000000000    0.6750000000000000 Br
