Cs2 Pb2 S2 Br4
1.0
   8.1761550739920139    0.0000000000000000    0.0000000000000000
   0.0000000000000000    8.2176550739920131    0.0000000000000000
   0.0000000000000000    0.0000000000000000  110.9372000000000043
Cs Pb S Br
2 2 2 4
direct
   0.5000000000000000    0.0000000000000000    0.4613307162111503 Cs
   0.0000000000000000    0.5000000000000000    0.4613307162111503 Cs
   0.5275716523468135    0.4677175616433329    0.5078868203264953 Pb
   0.9713716523468134    0.9677175616433329    0.5078868203264953 Pb
   0.5964716523468134    0.0786175616433331    0.4955482985014367 S
   0.9024716523468134    0.5786175616433331    0.4955482985014367 S
   0.0000000000000000    0.0000000000000000    0.4613307162111503 Br
   0.5000000000000000    0.5000000000000000    0.4613307162111503 Br
   0.1653716523468134    0.2735175616433327    0.4989894769107585 Br
   0.3335716523468133    0.7735175616433331    0.4989894769107585 Br
