L=2,4|T=4,1|O=1|d=3.796|a=0.3497|b=0.1242
1.0
   8.1761550739920139    0.0000000000000000    0.0000000000000000
   0.0000000000000000    8.2176550739920131    0.0000000000000000
   0.0000000000000000    0.0000000000000000  110.9372000000000043
Cs Pb S Br
8 40 24 40
direct
   0.5000000000000000    0.0000000000000000    0.3010992451730214 Cs
   0.0000000000000000    0.5000000000000000    0.3010992451730214 Cs
   0.5000000000000000    0.0000000000000000    0.3545097355190643 Cs
   0.0000000000000000    0.5000000000000000    0.3545097355190643 Cs
   0.5000000000000000    0.0000000000000000    0.4079202258651072 Cs
   0.0000000000000000    0.5000000000000000    0.4079202258651072 Cs
   0.5000000000000000    0.0000000000000000    0.4613307162111503 Cs
   0.0000000000000000    0.5000000000000000    0.4613307162111503 Cs
   0.0000000000000000    0.0000000000000000    0.2743940000000000 Pb
   0.5000000000000000    0.5000000000000000    0.2743940000000000 Pb
   0.0000000000000000    0.0000000000000000    0.3278044903460429 Pb
   0.5000000000000000    0.5000000000000000    0.3278044903460429 Pb
   0.0000000000000000    0.0000000000000000    0.3812149806920858 Pb
   0.5000000000000000    0.5000000000000000    0.3812149806920858 Pb
   0.0000000000000000    0.0000000000000000    0.4346254710381288 Pb
   0.5000000000000000    0.5000000000000000    0.4346254710381288 Pb
   0.5275716523468135    0.4677175616433329    0.5078868203264953 Pb
   0.9713716523468134    0.9677175616433329    0.5078868203264953 Pb
   0.4713716523468134    0.0515175616433328    0.5177524040551216 Pb
   0.0275716523468135    0.5515175616433329    0.5177524040551216 Pb
   0.6492716523468134    0.3950175616433330    0.5455304335721948 Pb
   0.8496716523468134    0.8950175616433330    0.5455304335721948 Pb
   0.2024716523468135    0.1893175616433327    0.5455304335721948 Pb
   0.2964716523468134    0.6893175616433328    0.5455304335721948 Pb
   0.4713716523468134    0.0515175616433328    0.5733084630892676 Pb
   0.0275716523468135    0.5515175616433329    0.5733084630892676 Pb
   0.5275716523468135    0.4677175616433329    0.5831740468178936 Pb
   0.9713716523468134    0.9677175616433329    0.5831740468178936 Pb
   0.3496716523468134    0.1242175616433327    0.6109520763349667 Pb
   0.7024716523468135    0.8299175616433334    0.6109520763349667 Pb
   0.7964716523468134    0.3299175616433328    0.6109520763349667 Pb
   0.1492716523468134    0.6242175616433328    0.6109520763349667 Pb
   0.5275716523468135    0.4677175616433329    0.6387301058520398 Pb
   0.9713716523468134    0.9677175616433329    0.6387301058520398 Pb
   0.4713716523468134    0.0515175616433328    0.6485956895806658 Pb
   0.0275716523468135    0.5515175616433329    0.6485956895806658 Pb
   0.6492716523468134    0.3950175616433330    0.6763737190977391 Pb
   0.8496716523468134    0.8950175616433330    0.6763737190977391 Pb
   0.2024716523468135    0.1893175616433327    0.6763737190977391 Pb
   0.2964716523468134    0.6893175616433328    0.6763737190977391 Pb
   0.4713716523468134    0.0515175616433328    0.7041517486148121 Pb
   0.0275716523468135    0.5515175616433329    0.7041517486148121 Pb
   0.5275716523468135    0.4677175616433329    0.7140173323434379 Pb
   0.9713716523468134    0.9677175616433329    0.7140173323434379 Pb
   0.3496716523468134    0.1242175616433327    0.7417953618605113 Pb
   0.7024716523468135    0.8299175616433334    0.7417953618605113 Pb
   0.7964716523468134    0.3299175616433328    0.7417953618605113 Pb
   0.1492716523468134    0.6242175616433328    0.7417953618605113 Pb
   0.5964716523468134    0.0786175616433331    0.4955482985014367 S
   0.9024716523468134    0.5786175616433331    0.4955482985014367 S
   0.4024716523468134    0.4406175616433328    0.5300909258801804 S
   0.0964716523468134    0.9406175616433328    0.5300909258801804 S
   0.4904716523468134    0.0466175616433326    0.5455304335721948 S
   0.0084716523468136    0.5466175616433327    0.5455304335721948 S
   0.4024716523468134    0.4406175616433328    0.5609699412642090 S
   0.0964716523468134    0.9406175616433328    0.5609699412642090 S
   0.5964716523468134    0.0786175616433331    0.5955125686429524 S
   0.9024716523468134    0.5786175616433331    0.5955125686429524 S
   0.5084716523468134    0.4726175616433329    0.6109520763349667 S
   0.9904716523468133    0.9726175616433329    0.6109520763349667 S
   0.5964716523468134    0.0786175616433331    0.6263915840269811 S
   0.9024716523468134    0.5786175616433331    0.6263915840269811 S
   0.4024716523468134    0.4406175616433328    0.6609342114057247 S
   0.0964716523468134    0.9406175616433328    0.6609342114057247 S
   0.4904716523468134    0.0466175616433326    0.6763737190977391 S
   0.0084716523468136    0.5466175616433327    0.6763737190977391 S
   0.4024716523468134    0.4406175616433328    0.6918132267897532 S
   0.0964716523468134    0.9406175616433328    0.6918132267897532 S
   0.5964716523468134    0.0786175616433331    0.7263558541684968 S
   0.9024716523468134    0.5786175616433331    0.7263558541684968 S
   0.5084716523468134    0.4726175616433329    0.7417953618605113 S
   0.9904716523468133    0.9726175616433329    0.7417953618605113 S
   0.2500000000000000    0.2500000000000000    0.2743940000000000 Br
   0.7500000000000000    0.7500000000000000    0.2743940000000000 Br
   0.2499999999999999    0.7500000000000000    0.2743940000000000 Br
   0.7500000000000000    0.2499999999999999    0.2743940000000000 Br
   0.0000000000000000    0.0000000000000000    0.3010992451730214 Br
   0.5000000000000000    0.5000000000000000    0.3010992451730214 Br
   0.2500000000000000    0.2500000000000000    0.3278044903460429 Br
   0.7500000000000000    0.7500000000000000    0.3278044903460429 Br
   0.2499999999999999    0.7500000000000000    0.3278044903460429 Br
   0.7500000000000000    0.2499999999999999    0.3278044903460429 Br
   0.0000000000000000    0.0000000000000000    0.3545097355190643 Br
   0.5000000000000000    0.5000000000000000    0.3545097355190643 Br
   0.2500000000000000    0.2500000000000000    0.3812149806920858 Br
   0.7500000000000000    0.7500000000000000    0.3812149806920858 Br
   0.2499999999999999    0.7500000000000000    0.3812149806920858 Br
   0.7500000000000000    0.2499999999999999    0.3812149806920858 Br
   0.0000000000000000    0.0000000000000000    0.4079202258651072 Br
   0.5000000000000000    0.5000000000000000    0.4079202258651072 Br
   0.2500000000000000    0.2500000000000000    0.4346254710381288 Br
   0.7500000000000000    0.7500000000000000    0.4346254710381288 Br
   0.2499999999999999    0.7500000000000000    0.4346254710381288 Br
   0.7500000000000000    0.2499999999999999    0.4346254710381288 Br
   0.0000000000000000    0.0000000000000000    0.4613307162111503 Br
   0.5000000000000000    0.5000000000000000    0.4613307162111503 Br
   0.1653716523468134    0.2735175616433327    0.4989894769107585 Br
   0.3335716523468133    0.7735175616433331    0.4989894769107585 Br
   0.6653716523468134    0.7457175616433331    0.5266497474708586 Br
   0.8335716523468134    0.2457175616433328    0.5266497474708586 Br
   0.6653716523468134    0.7457175616433331    0.5644111196735307 Br
   0.8335716523468134    0.2457175616433328    0.5644111196735307 Br
   0.1653716523468134    0.2735175616433327    0.5920713902336308 Br
   0.3335716523468133    0.7735175616433331    0.5920713902336308 Br
   0.1653716523468134    0.2735175616433327    0.6298327624363029 Br
   0.3335716523468133    0.7735175616433331    0.6298327624363029 Br
   0.6653716523468134    0.7457175616433331    0.6574930329964026 Br
   0.8335716523468134    0.2457175616433328    0.6574930329964026 Br
   0.6653716523468134    0.7457175616433331    0.6952544051990751 Br
   0.8335716523468134    0.2457175616433328    0.6952544051990751 Br
   0.1653716523468134    0.2735175616433327    0.7229146757591751 Br
   0.3335716523468133    0.7735175616433331    0.7229146757591751 Br
