INCAR created by Atomic Simulation Environment
 AEXX = 0.250000
 ENCUT = 400.000000
 HFSCREEN = 0.200000
 SIGMA = 0.020000
 TIME = 0.400000
 ALGO = All
 GGA = PE
 PREC = N
 ICHARG = 2
 ISMEAR = 0
 ISTART = 0
 KPAR = 16
 LMAXMIX = 4
 LORBIT = 11
 LSORBIT = .TRUE.
 NPAR = 4
 NCORE = 1
 LCHARG = .FALSE.
 LDIAG = .TRUE.
 LHFCALC = .TRUE.
 LWAVE = .FALSE.
 ISPIN = 2
 MAGMOM = 2*0.0000 1*0.5000 2*0.0000 1*0.0000 
