L=2|T=5|O=True
1.0
   8.0950000000000006    0.0000000000000000    0.0000000000000000
   0.0000000000000000    8.1780000000000008    0.0000000000000000
   0.0000000000000000    0.0000000000000000   58.9279999999999973
Pb S Br
32 24 16
direct
   0.3749000000000000    0.8891000000000000    0.2702880000000000 Pb
   0.9311000000000000    0.3891000000000000    0.2702880000000000 Pb
   0.4311000000000000    0.4729000000000000    0.2891380000000000 Pb
   0.8749000000000000    0.9729000000000000    0.2891380000000000 Pb
   0.0528000000000000    0.3164000000000000    0.3422120000000000 Pb
   0.2532000000000000    0.8164000000000000    0.3422120000000000 Pb
   0.6060000000000000    0.1107000000000000    0.3422120000000000 Pb
   0.7000000000000000    0.6107000000000000    0.3422120000000000 Pb
   0.4311000000000000    0.4729000000000000    0.3952880000000000 Pb
   0.8749000000000000    0.9729000000000000    0.3952880000000000 Pb
   0.3749000000000000    0.8891000000000000    0.4141380000000000 Pb
   0.9311000000000000    0.3891000000000000    0.4141380000000000 Pb
   0.1060000000000000    0.7513000000000000    0.4672120000000000 Pb
   0.2000000000000000    0.2513000000000000    0.4672120000000000 Pb
   0.5528000000000000    0.5456000000000000    0.4672120000000000 Pb
   0.7532000000000000    0.0456000000000000    0.4672120000000000 Pb
   0.3749000000000000    0.8891000000000000    0.5202880000000000 Pb
   0.9311000000000000    0.3891000000000000    0.5202880000000000 Pb
   0.4311000000000000    0.4729000000000000    0.5391370000000000 Pb
   0.8749000000000000    0.9729000000000000    0.5391370000000000 Pb
   0.0528000000000000    0.3164000000000000    0.5922120000000000 Pb
   0.2532000000000000    0.8164000000000000    0.5922120000000000 Pb
   0.6060000000000000    0.1107000000000000    0.5922120000000000 Pb
   0.7000000000000000    0.6107000000000000    0.5922120000000000 Pb
   0.4311000000000000    0.4729000000000000    0.6452880000000000 Pb
   0.8749000000000000    0.9729000000000000    0.6452880000000000 Pb
   0.3749000000000000    0.8891000000000000    0.6641370000000000 Pb
   0.9311000000000000    0.3891000000000000    0.6641370000000000 Pb
   0.1060000000000000    0.7513000000000000    0.7172120000000000 Pb
   0.2000000000000000    0.2513000000000000    0.7172120000000000 Pb
   0.5528000000000000    0.5456000000000000    0.7172120000000000 Pb
   0.7532000000000000    0.0456000000000000    0.7172120000000000 Pb
   0.5000000000000000    0.8620000000000000    0.3127120000000000 S
   0.8060000000000000    0.3620000000000000    0.3127120000000000 S
   0.4120000000000000    0.4680000000000000    0.3422120000000000 S
   0.8940000000000000    0.9680000000000000    0.3422120000000000 S
   0.5000000000000000    0.8620000000000000    0.3717120000000000 S
   0.8060000000000000    0.3620000000000000    0.3717120000000000 S
   0.0000000000000000    0.0000000000000000    0.4377120000000000 S
   0.3060000000000000    0.5000000000000000    0.4377120000000000 S
   0.3940000000000000    0.8940000000000000    0.4672120000000000 S
   0.9120000000000000    0.3940000000000000    0.4672120000000000 S
   0.0000000000000000    0.0000000000000000    0.4967120000000000 S
   0.3060000000000000    0.5000000000000000    0.4967120000000000 S
   0.5000000000000000    0.8620000000000000    0.5627120000000000 S
   0.8060000000000000    0.3620000000000000    0.5627120000000000 S
   0.4120000000000000    0.4680000000000000    0.5922120000000000 S
   0.8940000000000000    0.9680000000000000    0.5922120000000000 S
   0.5000000000000000    0.8620000000000000    0.6217120000000000 S
   0.8060000000000000    0.3620000000000000    0.6217120000000000 S
   0.0000000000000000    0.0000000000000000    0.6877120000000000 S
   0.3060000000000000    0.5000000000000000    0.6877120000000000 S
   0.3940000000000000    0.8940000000000000    0.7172120000000000 S
   0.9120000000000000    0.3940000000000000    0.7172120000000000 S
   0.0000000000000000    0.0000000000000000    0.7467120000000000 S
   0.3060000000000000    0.5000000000000000    0.7467120000000000 S
   0.5689000000000000    0.1949000000000000    0.2532880000000000 Br
   0.7371000000000000    0.6949000000000000    0.2532880000000000 Br
   0.0689000000000000    0.6671000000000000    0.3061380000000000 Br
   0.2371000000000000    0.1671000000000000    0.3061380000000000 Br
   0.0689000000000000    0.6671000000000000    0.3782870000000000 Br
   0.2371000000000000    0.1671000000000000    0.3782870000000000 Br
   0.5689000000000000    0.1949000000000000    0.4311380000000000 Br
   0.7371000000000000    0.6949000000000000    0.4311380000000000 Br
   0.5689000000000000    0.1949000000000000    0.5032880000000000 Br
   0.7371000000000000    0.6949000000000000    0.5032880000000000 Br
   0.0689000000000000    0.6671000000000000    0.5561370000000000 Br
   0.2371000000000000    0.1671000000000000    0.5561370000000000 Br
   0.0689000000000000    0.6671000000000000    0.6282870000000000 Br
   0.2371000000000000    0.1671000000000000    0.6282870000000000 Br
   0.5689000000000000    0.1949000000000000    0.6811370000000000 Br
   0.7371000000000000    0.6949000000000000    0.6811370000000000 Br
