L=2,4|T=5,0|O=1|d=3.347|a=0.5984|b=-0.2150
1.0
   8.1761550739920139    0.0000000000000000    0.0000000000000000
   0.0000000000000000    8.2176550739920131    0.0000000000000000
   0.0000000000000000    0.0000000000000000  116.7759999999999962
Cs Pb S Br
8 40 24 40
direct
   0.5000000000000000    0.0000000000000000    0.2799750000000000 Cs
   0.0000000000000000    0.5000000000000000    0.2799750000000000 Cs
   0.5000000000000000    0.0000000000000000    0.3307149658287408 Cs
   0.0000000000000000    0.5000000000000000    0.3307149658287408 Cs
   0.5000000000000000    0.0000000000000000    0.3814549316574816 Cs
   0.0000000000000000    0.5000000000000000    0.3814549316574816 Cs
   0.5000000000000000    0.0000000000000000    0.4321948974862223 Cs
   0.0000000000000000    0.5000000000000000    0.4321948974862223 Cs
   0.0000000000000000    0.0000000000000000    0.3053449829143704 Pb
   0.5000000000000000    0.5000000000000000    0.3053449829143704 Pb
   0.0000000000000000    0.0000000000000000    0.3560849487431111 Pb
   0.5000000000000000    0.5000000000000000    0.3560849487431111 Pb
   0.0000000000000000    0.0000000000000000    0.4068249145718519 Pb
   0.5000000000000000    0.5000000000000000    0.4068249145718519 Pb
   0.0000000000000000    0.0000000000000000    0.4575648804005927 Pb
   0.5000000000000000    0.5000000000000000    0.4575648804005927 Pb
   0.9733272260624842    0.6740937670225169    0.4946772858231442 Pb
   0.5295272260624844    0.1740937670225168    0.4946772858231442 Pb
   0.0295272260624839    0.2578937670225168    0.5040495903653389 Pb
   0.4733272260624841    0.7578937670225172    0.5040495903653389 Pb
   0.6512272260624841    0.1013937670225168    0.5304387184065584 Pb
   0.8516272260624842    0.6013937670225169    0.5304387184065584 Pb
   0.2044272260624840    0.8956937670225170    0.5304387184065584 Pb
   0.2984272260624841    0.3956937670225173    0.5304387184065584 Pb
   0.0295272260624839    0.2578937670225168    0.5568278464477778 Pb
   0.4733272260624841    0.7578937670225172    0.5568278464477778 Pb
   0.9733272260624842    0.6740937670225169    0.5662001509899726 Pb
   0.5295272260624844    0.1740937670225168    0.5662001509899726 Pb
   0.7044272260624840    0.5362937670225167    0.5925892790311921 Pb
   0.7984272260624841    0.0362937670225169    0.5925892790311921 Pb
   0.1512272260624838    0.3305937670225169    0.5925892790311921 Pb
   0.3516272260624840    0.8305937670225169    0.5925892790311921 Pb
   0.9733272260624842    0.6740937670225169    0.6189784070724116 Pb
   0.5295272260624844    0.1740937670225168    0.6189784070724116 Pb
   0.0295272260624839    0.2578937670225168    0.6283507116146062 Pb
   0.4733272260624841    0.7578937670225172    0.6283507116146062 Pb
   0.6512272260624841    0.1013937670225168    0.6547398396558257 Pb
   0.8516272260624842    0.6013937670225169    0.6547398396558257 Pb
   0.2044272260624840    0.8956937670225170    0.6547398396558257 Pb
   0.2984272260624841    0.3956937670225173    0.6547398396558257 Pb
   0.0295272260624839    0.2578937670225168    0.6811289676970452 Pb
   0.4733272260624841    0.7578937670225172    0.6811289676970452 Pb
   0.9733272260624842    0.6740937670225169    0.6905012722392398 Pb
   0.5295272260624844    0.1740937670225168    0.6905012722392398 Pb
   0.7044272260624840    0.5362937670225167    0.7168904002804595 Pb
   0.7984272260624841    0.0362937670225169    0.7168904002804595 Pb
   0.1512272260624838    0.3305937670225169    0.7168904002804595 Pb
   0.3516272260624840    0.8305937670225169    0.7168904002804595 Pb
   0.0984272260624839    0.6469937670225170    0.5157711860991449 S
   0.4044272260624839    0.1469937670225168    0.5157711860991449 S
   0.0104272260624840    0.2529937670225169    0.5304387184065584 S
   0.4924272260624840    0.7529937670225169    0.5304387184065584 S
   0.0984272260624839    0.6469937670225170    0.5451062507139720 S
   0.4044272260624839    0.1469937670225168    0.5451062507139720 S
   0.5984272260624840    0.7849937670225169    0.5779217467237785 S
   0.9044272260624842    0.2849937670225168    0.5779217467237785 S
   0.9924272260624841    0.6789937670225168    0.5925892790311921 S
   0.5104272260624843    0.1789937670225172    0.5925892790311921 S
   0.5984272260624840    0.7849937670225169    0.6072568113386057 S
   0.9044272260624842    0.2849937670225168    0.6072568113386057 S
   0.0984272260624839    0.6469937670225170    0.6400723073484123 S
   0.4044272260624839    0.1469937670225168    0.6400723073484123 S
   0.0104272260624840    0.2529937670225169    0.6547398396558257 S
   0.4924272260624840    0.7529937670225169    0.6547398396558257 S
   0.0984272260624839    0.6469937670225170    0.6694073719632392 S
   0.4044272260624839    0.1469937670225168    0.6694073719632392 S
   0.5984272260624840    0.7849937670225169    0.7022228679730458 S
   0.9044272260624842    0.2849937670225168    0.7022228679730458 S
   0.9924272260624841    0.6789937670225168    0.7168904002804595 S
   0.5104272260624843    0.1789937670225172    0.7168904002804595 S
   0.5984272260624840    0.7849937670225169    0.7315579325878728 S
   0.9044272260624842    0.2849937670225168    0.7315579325878728 S
   0.0000000000000000    0.0000000000000000    0.2799750000000000 Br
   0.5000000000000000    0.5000000000000000    0.2799750000000000 Br
   0.2500000000000000    0.2500000000000000    0.3053449829143704 Br
   0.7500000000000000    0.7500000000000000    0.3053449829143704 Br
   0.2499999999999999    0.7500000000000000    0.3053449829143704 Br
   0.7500000000000000    0.2499999999999999    0.3053449829143704 Br
   0.0000000000000000    0.0000000000000000    0.3307149658287408 Br
   0.5000000000000000    0.5000000000000000    0.3307149658287408 Br
   0.2500000000000000    0.2500000000000000    0.3560849487431111 Br
   0.7500000000000000    0.7500000000000000    0.3560849487431111 Br
   0.2499999999999999    0.7500000000000000    0.3560849487431111 Br
   0.7500000000000000    0.2499999999999999    0.3560849487431111 Br
   0.0000000000000000    0.0000000000000000    0.3814549316574816 Br
   0.5000000000000000    0.5000000000000000    0.3814549316574816 Br
   0.2500000000000000    0.2500000000000000    0.4068249145718519 Br
   0.7500000000000000    0.7500000000000000    0.4068249145718519 Br
   0.2499999999999999    0.7500000000000000    0.4068249145718519 Br
   0.7500000000000000    0.2499999999999999    0.4068249145718519 Br
   0.0000000000000000    0.0000000000000000    0.4321948974862223 Br
   0.5000000000000000    0.5000000000000000    0.4321948974862223 Br
   0.2500000000000000    0.2500000000000000    0.4575648804005927 Br
   0.7500000000000000    0.7500000000000000    0.4575648804005927 Br
   0.2499999999999999    0.7500000000000000    0.4575648804005927 Br
   0.7500000000000000    0.2499999999999999    0.4575648804005927 Br
   0.1673272260624841    0.9798937670225168    0.4862248095781940 Br
   0.3355272260624840    0.4798937670225168    0.4862248095781940 Br
   0.6673272260624840    0.4520937670225170    0.5125020666102891 Br
   0.8355272260624840    0.9520937670225168    0.5125020666102891 Br
   0.6673272260624840    0.4520937670225170    0.5483753702028277 Br
   0.8355272260624840    0.9520937670225168    0.5483753702028277 Br
   0.1673272260624841    0.9798937670225168    0.5746526272349228 Br
   0.3355272260624840    0.4798937670225168    0.5746526272349228 Br
   0.1673272260624841    0.9798937670225168    0.6105259308274613 Br
   0.3355272260624840    0.4798937670225168    0.6105259308274613 Br
   0.6673272260624840    0.4520937670225170    0.6368031878595564 Br
   0.8355272260624840    0.9520937670225168    0.6368031878595564 Br
   0.6673272260624840    0.4520937670225170    0.6726764914520950 Br
   0.8355272260624840    0.9520937670225168    0.6726764914520950 Br
   0.1673272260624841    0.9798937670225168    0.6989537484841900 Br
   0.3355272260624840    0.4798937670225168    0.6989537484841900 Br
