Pb6 Br6
1.0
   8.1761550739920139    0.0000000000000000    0.0000000000000000
   0.0000000000000000    8.2176550739920131    0.0000000000000000
   0.0000000000000000    0.0000000000000000  116.7759999999999962
Pb Br
6 6
direct
   0.0000000000000000    0.0000000000000000    0.4575648804005927 Pb
   0.5000000000000000    0.5000000000000000    0.4575648804005927 Pb
   0.9733272260624842    0.6740937670225169    0.4946772858231442 Pb
   0.5295272260624844    0.1740937670225168    0.4946772858231442 Pb
   0.0295272260624839    0.2578937670225168    0.5040495903653389 Pb
   0.4733272260624841    0.7578937670225172    0.5040495903653389 Pb
   0.2500000000000000    0.2500000000000000    0.4575648804005927 Br
   0.7500000000000000    0.7500000000000000    0.4575648804005927 Br
   0.2499999999999999    0.7500000000000000    0.4575648804005927 Br
   0.7500000000000000    0.2499999999999999    0.4575648804005927 Br
   0.1673272260624841    0.9798937670225168    0.4862248095781940 Br
   0.3355272260624840    0.4798937670225168    0.4862248095781940 Br
