Heusler                                 
    1.000000000000000     
     0.0000000000000000    3.0314614967363345    3.0314614967363345
     3.0314614967363345    0.0000000000000000    3.0314614967363345
     3.0314614967363345    3.0314614967363345    0.0000000000000000
  Co              Zr              Al            
     2     1     1
Direct
  0.2500000000000000  0.2500000000000000  0.2500000000000000
  0.7500000000000000  0.7500000000000000  0.7500000000000000
  0.5000000000000000  0.5000000000000000  0.5000000000000000
  0.0000000000000000  0.0000000000000000  0.0000000000000000
 
  0.00000000E+00  0.00000000E+00  0.00000000E+00
  0.00000000E+00  0.00000000E+00  0.00000000E+00
  0.00000000E+00  0.00000000E+00  0.00000000E+00
  0.00000000E+00  0.00000000E+00  0.00000000E+00
