L=8,28|T=0,0|O=1|d=2.053|a=0.0000|b=0.0000
1.0
  11.4519028070240338    0.0000000000000010    0.0000000000000031
   5.7259496012776747    9.9176398290075571    0.0000000000000025
   0.0000000000000000    0.0000000000000000  201.4456380000000308
Al Pb Se
224 140 284
direct
   0.5666046470871331    0.1328822957654516    0.5030969999758099 Al
   0.8999379804204697    0.4662156290987856    0.5030969999758098 Al
   0.2332713137538001    0.7995489624321213    0.5030969999758099 Al
   0.5665713137538013    0.4662489624321200    0.5030969999758098 Al
   0.8999046470871335    0.7995822957654539    0.5030969999758099 Al
   0.2332379804204683    0.1329156290987861    0.5030969999758099 Al
   0.4602790510504073    0.3502745610243281    0.5192478607999375 Al
   0.7936123843837386    0.6836078943576656    0.5192478607999375 Al
   0.1269457177170707    0.0169412276909995    0.5192478607999375 Al
   0.4602457177170738    0.6836412276909964    0.5192478607999375 Al
   0.7935790510504059    0.0169745610243304    0.5192478607999375 Al
   0.1269123843837363    0.3503078943576678    0.5192478607999375 Al
   0.2428867883470094    0.4566001596165439    0.5353987216240650 Al
   0.5762201216803460    0.7899334929498742    0.5353987216240650 Al
   0.9095534550136772    0.1232668262832117    0.5353987216240650 Al
   0.2428534550136785    0.7899668262832087    0.5353987216240650 Al
   0.5761867883470106    0.1233001596165462    0.5353987216240650 Al
   0.9095201216803428    0.4566334929498765    0.5353987216240650 Al
   0.1365611923102836    0.6739924248754168    0.5515495824481926 Al
   0.4698945256436158    0.0073257582087525    0.5515495824481926 Al
   0.8032278589769479    0.3406590915420864    0.5515495824481926 Al
   0.1365278589769492    0.0073590915420851    0.5515495824481926 Al
   0.4698611923102840    0.3406924248754173    0.5515495824481926 Al
   0.8031945256436188    0.6740257582087512    0.5515495824481926 Al
   0.9191355962735539    0.1136846901343009    0.5677004432723199 Al
   0.2524689296068878    0.4470180234676278    0.5677004432723202 Al
   0.5858022629402200    0.7803513568009635    0.5677004432723203 Al
   0.9191689296068866    0.7803180234676308    0.5677004432723201 Al
   0.2525022629402232    0.1136513568009629    0.5677004432723202 Al
   0.5858355962735544    0.4469846901342951    0.5677004432723202 Al
   0.8128100002368264    0.3310769553931774    0.5838513040964476 Al
   0.1461433335701603    0.6644102887265113    0.5838513040964478 Al
   0.4794766669034924    0.9977436220598452    0.5838513040964477 Al
   0.8128433335701590    0.9977102887265108    0.5838513040964477 Al
   0.1461766669034930    0.3310436220598429    0.5838513040964477 Al
   0.4795100002368233    0.6643769553931786    0.5838513040964477 Al
   0.5954510708667620    0.1040358873187248    0.6000021649205751 Al
   0.9287844042000959    0.4373692206520587    0.6000021649205751 Al
   0.2621177375334263    0.7707025539853927    0.6000021649205751 Al
   0.5954177375334293    0.4374025539853914    0.6000021649205751 Al
   0.9287510708667632    0.7707358873187236    0.6000021649205751 Al
   0.2620844042000954    0.1040692206520575    0.6000021649205751 Al
   0.4890921414967035    0.6547948192442679    0.6161530257447028 Al
   0.8224254748300339    0.9881281525776018    0.6161530257447028 Al
   0.1557588081633678    0.3214614859109357    0.6161530257447028 Al
   0.4891254748300344    0.3214281525776030    0.6161530257447028 Al
   0.8224588081633684    0.6547614859109352    0.6161530257447028 Al
   0.1557921414966987    0.9880948192442727    0.6161530257447028 Al
   0.2716998787933074    0.7611204178364748    0.6323038865688302 Al
   0.6050332121266395    0.0944537511698123    0.6323038865688302 Al
   0.9383665454599708    0.4277870845031462    0.6323038865688302 Al
   0.2717332121266374    0.4277537511698117    0.6323038865688302 Al
   0.6050665454599731    0.7610870845031439    0.6323038865688302 Al
   0.9383998787933052    0.0944204178364796    0.6323038865688302 Al
   0.1653742827565789    0.9785126830953548    0.6484547473929577 Al
   0.4987076160899129    0.3118460164286887    0.6484547473929577 Al
   0.8320409494232468    0.6451793497620226    0.6484547473929577 Al
   0.1654076160899098    0.6451460164286900    0.6484547473929577 Al
   0.4987409494232464    0.9784793497620239    0.6484547473929577 Al
   0.8320742827565777    0.3118126830953578    0.6484547473929577 Al
   0.9479820200531854    0.0848382816875635    0.6646056082170855 Al
   0.2813153533865158    0.4181716150209009    0.6646056082170855 Al
   0.6146486867198515    0.7515049483542349    0.6646056082170855 Al
   0.9480153533865163    0.7514716150208987    0.6646056082170855 Al
   0.2813486867198520    0.0848049483542326    0.6646056082170855 Al
   0.6146820200531842    0.4181382816875665    0.6646056082170855 Al
   0.8416897573497906    0.9688638802797751    0.6807564690412129 Al
   0.1750230906831227    0.3021972136131108    0.6807564690412129 Al
   0.5083564240164566    0.6355305469464430    0.6807564690412129 Al
   0.8416564240164561    0.3022305469464452    0.6807564690412129 Al
   0.1749897573497883    0.6355638802797774    0.6807564690412129 Al
   0.5083230906831204    0.9688972136131095    0.6807564690412129 Al
   0.6242641613130600    0.4085561455386575    0.6969073298653405 Al
   0.9575974946463930    0.7418894788719896    0.6969073298653405 Al
   0.2909308279797251    0.0752228122053236    0.6969073298653405 Al
   0.6242974946463935    0.0751894788719891    0.6969073298653405 Al
   0.9576308279797274    0.4085228122053248    0.6969073298653405 Al
   0.2909641613130640    0.7418561455386552    0.6969073298653405 Al
   0.5179385652763333    0.6259484107975375    0.7130581906894681 Al
   0.8512718986096637    0.9592817441308696    0.7130581906894681 Al
   0.1846052319429958    0.2926150774642018    0.7130581906894682 Al
   0.5179718986096660    0.2925817441308673    0.7130581906894682 Al
   0.8513052319429999    0.6259150774642031    0.7130581906894681 Al
   0.1846385652763320    0.9592484107975352    0.7130581906894682 Al
   0.3005463025729362    0.7322740093897497    0.7292090515135956 Al
   0.6338796359062719    0.0656073427230819    0.7292090515135956 Al
   0.9672129692396005    0.3989406760564158    0.7292090515135956 Al
   0.3005796359062707    0.3989073427230814    0.7292090515135956 Al
   0.6339129692396028    0.7322406760564135    0.7292090515135956 Al
   0.9672463025729350    0.0655740093897492    0.7292090515135956 Al
   0.1942207065362105    0.9496662746486226    0.7453599123377231 Al
   0.5275540398695409    0.2829996079819601    0.7453599123377231 Al
   0.8608873732028783    0.6163329413152923    0.7453599123377234 Al
   0.1942540398695405    0.6162996079819614    0.7453599123377231 Al
   0.5275873732028735    0.9496329413152971    0.7453599123377231 Al
   0.8609207065362092    0.2829662746486239    0.7453599123377234 Al
   0.1015209157335244    0.1855987686577762    0.7676621840167168 Al
   0.1015209157335262    0.4355987686577762    0.7676621840167168 Al
   0.1015209157335262    0.6855987686577762    0.7676621840167168 Al
   0.1015209157335253    0.9355987686577762    0.7676621840167168 Al
   0.3515209157335262    0.1855987686577780    0.7676621840167168 Al
   0.3515209157335253    0.4355987686577762    0.7676621840167168 Al
   0.3515209157335262    0.6855987686577762    0.7676621840167168 Al
   0.3515209157335253    0.9355987686577762    0.7676621840167168 Al
   0.6015209157335262    0.1855987686577780    0.7676621840167168 Al
   0.6015209157335235    0.4355987686577780    0.7676621840167168 Al
   0.6015209157335244    0.6855987686577780    0.7676621840167168 Al
   0.6015209157335253    0.9355987686577762    0.7676621840167168 Al
   0.8515209157335271    0.1855987686577780    0.7676621840167168 Al
   0.8515209157335253    0.4355987686577780    0.7676621840167168 Al
   0.8515209157335235    0.6855987686577780    0.7676621840167168 Al
   0.8515209157335271    0.9355987686577762    0.7676621840167168 Al
   0.2681875073945541    0.1022654689283566    0.7792728140610514 Al
   0.2681875073945541    0.3522654689283566    0.7792728140610514 Al
   0.2681875073945541    0.6022654689283566    0.7792728140610514 Al
   0.2681875073945550    0.8522654689283566    0.7792728140610514 Al
   0.5181875073945541    0.1022654689283566    0.7792728140610514 Al
   0.5181875073945541    0.3522654689283566    0.7792728140610514 Al
   0.5181875073945523    0.6022654689283566    0.7792728140610514 Al
   0.5181875073945550    0.8522654689283549    0.7792728140610515 Al
   0.7681875073945541    0.1022654689283549    0.7792728140610515 Al
   0.7681875073945541    0.3522654689283549    0.7792728140610515 Al
   0.7681875073945541    0.6022654689283549    0.7792728140610515 Al
   0.7681875073945550    0.8522654689283549    0.7792728140610515 Al
   0.0181875073945541    0.1022654689283549    0.7792728140610515 Al
   0.0181875073945541    0.3522654689283549    0.7792728140610515 Al
   0.0181875073945541    0.6022654689283549    0.7792728140610515 Al
   0.0181875073945550    0.8522654689283549    0.7792728140610515 Al
   0.4348540990555847    0.2689321691989335    0.7908834441053861 Al
   0.4348540990555829    0.5189321691989335    0.7908834441053861 Al
   0.4348540990555829    0.7689321691989335    0.7908834441053861 Al
   0.4348540990555838    0.0189321691989335    0.7908834441053861 Al
   0.6848540990555847    0.2689321691989335    0.7908834441053861 Al
   0.6848540990555829    0.5189321691989335    0.7908834441053861 Al
   0.6848540990555829    0.7689321691989335    0.7908834441053861 Al
   0.6848540990555856    0.0189321691989335    0.7908834441053861 Al
   0.9348540990555847    0.2689321691989335    0.7908834441053861 Al
   0.9348540990555847    0.5189321691989335    0.7908834441053861 Al
   0.9348540990555829    0.7689321691989335    0.7908834441053861 Al
   0.9348540990555847    0.0189321691989335    0.7908834441053861 Al
   0.1848540990555847    0.2689321691989335    0.7908834441053861 Al
   0.1848540990555829    0.5189321691989335    0.7908834441053861 Al
   0.1848540990555829    0.7689321691989335    0.7908834441053861 Al
   0.1848540990555856    0.0189321691989335    0.7908834441053861 Al
   0.6015206907166117    0.9355988694695121    0.8024940741497207 Al
   0.6015206907166144    0.1855988694695121    0.8024940741497207 Al
   0.6015206907166117    0.4355988694695121    0.8024940741497207 Al
   0.6015206907166135    0.6855988694695121    0.8024940741497207 Al
   0.8515206907166117    0.9355988694695121    0.8024940741497207 Al
   0.8515206907166117    0.1855988694695121    0.8024940741497207 Al
   0.8515206907166117    0.4355988694695121    0.8024940741497207 Al
   0.8515206907166117    0.6855988694695121    0.8024940741497207 Al
   0.1015206907166117    0.9355988694695121    0.8024940741497207 Al
   0.1015206907166126    0.1855988694695121    0.8024940741497207 Al
   0.1015206907166144    0.4355988694695121    0.8024940741497207 Al
   0.1015206907166117    0.6855988694695121    0.8024940741497207 Al
   0.3515206907166117    0.9355988694695121    0.8024940741497207 Al
   0.3515206907166117    0.1855988694695121    0.8024940741497207 Al
   0.3515206907166126    0.4355988694695121    0.8024940741497207 Al
   0.3515206907166117    0.6855988694695121    0.8024940741497207 Al
   0.7681872823776423    0.8522655697400907    0.8141047041940555 Al
   0.7681872823776414    0.1022655697400907    0.8141047041940552 Al
   0.7681872823776406    0.3522655697400925    0.8141047041940552 Al
   0.7681872823776406    0.6022655697400925    0.8141047041940552 Al
   0.0181872823776423    0.8522655697400907    0.8141047041940555 Al
   0.0181872823776423    0.1022655697400907    0.8141047041940552 Al
   0.0181872823776423    0.3522655697400907    0.8141047041940555 Al
   0.0181872823776432    0.6022655697400907    0.8141047041940555 Al
   0.2681872823776423    0.8522655697400907    0.8141047041940555 Al
   0.2681872823776423    0.1022655697400907    0.8141047041940555 Al
   0.2681872823776423    0.3522655697400907    0.8141047041940555 Al
   0.2681872823776423    0.6022655697400907    0.8141047041940555 Al
   0.5181872823776423    0.8522655697400907    0.8141047041940552 Al
   0.5181872823776423    0.1022655697400907    0.8141047041940552 Al
   0.5181872823776406    0.3522655697400925    0.8141047041940552 Al
   0.5181872823776432    0.6022655697400925    0.8141047041940552 Al
   0.1848538740386703    0.7689322700106711    0.8257153342383899 Al
   0.1848538740386729    0.0189322700106693    0.8257153342383899 Al
   0.1848538740386712    0.2689322700106711    0.8257153342383899 Al
   0.1848538740386694    0.5189322700106711    0.8257153342383899 Al
   0.4348538740386720    0.7689322700106693    0.8257153342383899 Al
   0.4348538740386729    0.0189322700106693    0.8257153342383899 Al
   0.4348538740386712    0.2689322700106711    0.8257153342383899 Al
   0.4348538740386694    0.5189322700106711    0.8257153342383899 Al
   0.6848538740386720    0.7689322700106693    0.8257153342383899 Al
   0.6848538740386712    0.0189322700106711    0.8257153342383899 Al
   0.6848538740386694    0.2689322700106711    0.8257153342383899 Al
   0.6848538740386694    0.5189322700106711    0.8257153342383899 Al
   0.9348538740386694    0.7689322700106711    0.8257153342383899 Al
   0.9348538740386712    0.0189322700106711    0.8257153342383899 Al
   0.9348538740386712    0.2689322700106711    0.8257153342383899 Al
   0.9348538740386712    0.5189322700106711    0.8257153342383899 Al
   0.1015204656997000    0.6855989702812497    0.8373259642827247 Al
   0.1015204656997000    0.9355989702812497    0.8373259642827247 Al
   0.1015204656997009    0.1855989702812497    0.8373259642827247 Al
   0.1015204656997000    0.4355989702812497    0.8373259642827247 Al
   0.3515204656997000    0.6855989702812497    0.8373259642827247 Al
   0.3515204656997009    0.9355989702812497    0.8373259642827247 Al
   0.3515204656997009    0.1855989702812497    0.8373259642827247 Al
   0.3515204656997000    0.4355989702812497    0.8373259642827247 Al
   0.6015204656997000    0.6855989702812497    0.8373259642827247 Al
   0.6015204656997000    0.9355989702812497    0.8373259642827247 Al
   0.6015204656997009    0.1855989702812497    0.8373259642827247 Al
   0.6015204656997000    0.4355989702812497    0.8373259642827247 Al
   0.8515204656996982    0.6855989702812497    0.8373259642827247 Al
   0.8515204656996982    0.9355989702812497    0.8373259642827247 Al
   0.8515204656997000    0.1855989702812497    0.8373259642827247 Al
   0.8515204656997000    0.4355989702812497    0.8373259642827247 Al
   0.2681870573607288    0.8522656705518266    0.8489365943270594 Al
   0.2681870573607288    0.1022656705518266    0.8489365943270594 Al
   0.2681870573607306    0.3522656705518266    0.8489365943270594 Al
   0.2681870573607306    0.6022656705518266    0.8489365943270594 Al
   0.5181870573607306    0.8522656705518266    0.8489365943270594 Al
   0.5181870573607270    0.1022656705518283    0.8489365943270594 Al
   0.5181870573607288    0.3522656705518266    0.8489365943270594 Al
   0.5181870573607288    0.6022656705518266    0.8489365943270594 Al
   0.7681870573607288    0.8522656705518266    0.8489365943270594 Al
   0.7681870573607279    0.1022656705518283    0.8489365943270594 Al
   0.7681870573607306    0.3522656705518266    0.8489365943270594 Al
   0.7681870573607306    0.6022656705518266    0.8489365943270594 Al
   0.0181870573607288    0.8522656705518266    0.8489365943270594 Al
   0.0181870573607288    0.1022656705518283    0.8489365943270594 Al
   0.0181870573607288    0.3522656705518266    0.8489365943270594 Al
   0.0181870573607306    0.6022656705518266    0.8489365943270594 Al
   0.6542222860519749    0.6822234541299803    0.1598354298245614 Pb
   0.9399365717662604    0.8250805969871227    0.1598354298245614 Pb
   0.2256508574805460    0.9679377398442650    0.1598354298245614 Pb
   0.5113651431948316    0.1107948827014091    0.1598354298245614 Pb
   0.7970794289091163    0.2536520255585515    0.1598354298245614 Pb
   0.0827937146234010    0.3965091684156938    0.1598354298245614 Pb
   0.3685080003376893    0.5393663112728362    0.1598354298245614 Pb
   0.1304126962334342    0.5869854028978949    0.1773792894736841 Pb
   0.4161269819477198    0.7298425457550373    0.1773792894736843 Pb
   0.7018412676620054    0.8726996886121796    0.1773792894736843 Pb
   0.9875555533762910    0.0155568314693237    0.1773792894736842 Pb
   0.2732698390905774    0.1584139743264661    0.1773792894736842 Pb
   0.5589841248048639    0.3012711171836084    0.1773792894736843 Pb
   0.8446984105191486    0.4441282600407526    0.1773792894736842 Pb
   0.0351745349863215    0.2060330659515266    0.1949231491228070 Pb
   0.3208888207006071    0.3488902088086689    0.1949231491228069 Pb
   0.6066031064148927    0.4917473516658113    0.1949231491228070 Pb
   0.8923173921291792    0.6346044945229536    0.1949231491228071 Pb
   0.1780316778434639    0.7774616373800978    0.1949231491228071 Pb
   0.4637459635577503    0.9203187802372401    0.1949231491228071 Pb
   0.7494602492720350    0.0631759230943825    0.1949231491228071 Pb
   0.2256506594534962    0.9679378718622988    0.2124670087719298 Pb
   0.5113649451677826    0.1107950147194394    0.2124670087719298 Pb
   0.7970792308820673    0.2536521575765818    0.2124670087719299 Pb
   0.0827935165963538    0.3965093004337259    0.2124670087719299 Pb
   0.3685078023106385    0.5393664432908700    0.2124670087719298 Pb
   0.6542220880249232    0.6822235861480124    0.2124670087719298 Pb
   0.9399363737392097    0.8250807290051565    0.2124670087719299 Pb
   0.4161267839206690    0.7298426777730711    0.2300108684210526 Pb
   0.7018410696349555    0.8726998206302135    0.2300108684210526 Pb
   0.9875553553492402    0.0155569634873558    0.2300108684210526 Pb
   0.2732696410635285    0.1584141063444982    0.2300108684210526 Pb
   0.5589839267778114    0.3012712492016441    0.2300108684210526 Pb
   0.8446982124920979    0.4441283920587846    0.2300108684210526 Pb
   0.1304124982063843    0.5869855349159288    0.2300108684210526 Pb
   0.0351743369592707    0.2060331979695587    0.2475547280701754 Pb
   0.3208886226735563    0.3488903408267028    0.2475547280701755 Pb
   0.6066029083878437    0.4917474836838451    0.2475547280701754 Pb
   0.8923171941021302    0.6346046265409893    0.2475547280701754 Pb
   0.1780314798164140    0.7774617693981298    0.2475547280701755 Pb
   0.4637457655306996    0.9203189122552740    0.2475547280701754 Pb
   0.7494600512449860    0.0631760551124163    0.2475547280701754 Pb
   0.7970790328550184    0.2536522895946174    0.2650985877192983 Pb
   0.0827933185693031    0.3965094324517615    0.2650985877192983 Pb
   0.3685076042835886    0.5393665753089039    0.2650985877192983 Pb
   0.6542218899978751    0.6822237181660462    0.2650985877192983 Pb
   0.9399361757121589    0.8250808610231903    0.2650985877192983 Pb
   0.2256504614264454    0.9679380038803345    0.2650985877192983 Pb
   0.5113647471407310    0.1107951467374750    0.2650985877192983 Pb
   0.4161265858936183    0.7298428097911067    0.2826424473684210 Pb
   0.7018408716079030    0.8726999526482508    0.2826424473684210 Pb
   0.9875551573221895    0.0155570955053932    0.2826424473684210 Pb
   0.2732694430364759    0.1584142383625355    0.2826424473684210 Pb
   0.5589837287507615    0.3012713812196779    0.2826424473684210 Pb
   0.8446980144650471    0.4441285240768202    0.2826424473684210 Pb
   0.1304123001793336    0.5869856669339626    0.2826424473684210 Pb
   0.6066027103607929    0.4917476157018790    0.3001863070175439 Pb
   0.8923169960750776    0.6346047585590231    0.3001863070175438 Pb
   0.1780312817893623    0.7774619014161654    0.3001863070175438 Pb
   0.4637455675036497    0.9203190442733078    0.3001863070175440 Pb
   0.7494598532179362    0.0631761871304501    0.3001863070175441 Pb
   0.0351741389322218    0.2060333299875960    0.3001863070175439 Pb
   0.3208884246465056    0.3488904728447384    0.3001863070175438 Pb
   0.7970788348279640    0.2536524216126548    0.3177301666666666 Pb
   0.0827931205422541    0.3965095644697954    0.3177301666666666 Pb
   0.3685074062565370    0.5393667073269395    0.3177301666666666 Pb
   0.6542216919708235    0.6822238501840818    0.3177301666666668 Pb
   0.9399359776851099    0.8250809930412224    0.3177301666666668 Pb
   0.2256502633993946    0.9679381358983665    0.3177301666666666 Pb
   0.5113645491136811    0.1107952787555089    0.3177301666666666 Pb
   0.9875549592951423    0.0155572275234270    0.3352740263157893 Pb
   0.2732692450094252    0.1584143703805694    0.3352740263157893 Pb
   0.5589835307237099    0.3012715132377117    0.3352740263157893 Pb
   0.8446978164379964    0.4441286560948559    0.3352740263157893 Pb
   0.1304121021522837    0.5869857989519964    0.3352740263157893 Pb
   0.4161263878665693    0.7298429418091388    0.3352740263157894 Pb
   0.7018406735808531    0.8727000846662847    0.3352740263157893 Pb
   0.7494596551908845    0.0631763191484858    0.3528178859649121 Pb
   0.0351739409051719    0.2060334620056281    0.3528178859649121 Pb
   0.3208882266194557    0.3488906048627722    0.3528178859649121 Pb
   0.6066025123337422    0.4917477477199128    0.3528178859649121 Pb
   0.8923167980480287    0.6346048905770552    0.3528178859649123 Pb
   0.1780310837623134    0.7774620334341975    0.3528178859649123 Pb
   0.4637453694765998    0.9203191762913416    0.3528178859649123 Pb
   0.3685072082294889    0.5393668393449715    0.3703617456140351 Pb
   0.6542214939437745    0.6822239822021139    0.3703617456140351 Pb
   0.9399357796580610    0.8250811250592562    0.3703617456140350 Pb
   0.2256500653723439    0.9679382679163986    0.3703617456140350 Pb
   0.5113643510866313    0.1107954107735445    0.3703617456140350 Pb
   0.7970786368009168    0.2536525536306851    0.3703617456140351 Pb
   0.0827929225152024    0.3965096964878274    0.3703617456140351 Pb
   0.1304119041252356    0.5869859309700285    0.3879056052631579 Pb
   0.4161261898395203    0.7298430738271708    0.3879056052631579 Pb
   0.7018404755538050    0.8727002166843150    0.3879056052631579 Pb
   0.9875547612680933    0.0155573595414555    0.3879056052631579 Pb
   0.2732690469823771    0.1584145023985997    0.3879056052631579 Pb
   0.5589833326966644    0.3012716452557438    0.3879056052631579 Pb
   0.8446976184109474    0.4441287881128844    0.3879056052631580 Pb
   0.3208880285924050    0.3488907368808025    0.4054494649122807 Pb
   0.6066023143066914    0.4917478797379449    0.4054494649122807 Pb
   0.8923166000209779    0.6346050225950890    0.4054494649122807 Pb
   0.1780308857352644    0.7774621654522296    0.4054494649122807 Pb
   0.4637451714495509    0.9203193083093719    0.4054494649122807 Pb
   0.7494594571638373    0.0631764511665143    0.4054494649122807 Pb
   0.0351737428781203    0.2060335940236584    0.4054494649122807 Pb
   0.9399355816310102    0.8250812570772901    0.4229933245614036 Pb
   0.2256498673452949    0.9679383999344324    0.4229933245614036 Pb
   0.5113641530595832    0.1107955427915748    0.4229933245614036 Pb
   0.7970784387738661    0.2536526856487189    0.4229933245614036 Pb
   0.0827927244881543    0.3965098285058613    0.4229933245614036 Pb
   0.3685070102024390    0.5393669713630036    0.4229933245614035 Pb
   0.6542212959167237    0.6822241142201495    0.4229933245614036 Pb
   0.1304117060981840    0.5869860629880641    0.4405371842105265 Pb
   0.4161259918124696    0.7298432058452065    0.4405371842105265 Pb
   0.7018402775267543    0.8727003487023488    0.4405371842105265 Pb
   0.9875545632410372    0.0155574915594947    0.4405371842105263 Pb
   0.2732688489553254    0.1584146344166371    0.4405371842105263 Pb
   0.5589831346696101    0.3012717772737794    0.4405371842105265 Pb
   0.8446974203838966    0.4441289201309218    0.4405371842105265 Pb
   0.8923164019939289    0.6346051546131211    0.4580810438596490 Pb
   0.1780306877082154    0.7774622974702652    0.4580810438596490 Pb
   0.4637449734225001    0.9203194403274058    0.4580810438596490 Pb
   0.7494592591367892    0.0631765831845481    0.4580810438596490 Pb
   0.0351735448510713    0.2060337260416940    0.4580810438596490 Pb
   0.3208878305653560    0.3488908688988364    0.4580810438596490 Pb
   0.6066021162796442    0.4917480117559787    0.4580810438596490 Pb
   0.0827925264611062    0.3965099605238951    0.4756249035087719 Pb
   0.3685068121753901    0.5393671033810374    0.4756249035087719 Pb
   0.6542210978896765    0.6822242462381798    0.4756249035087719 Pb
   0.9399353836039595    0.8250813890953239    0.4756249035087719 Pb
   0.2256496693182477    0.9679385319524663    0.4756249035087719 Pb
   0.5113639550325324    0.1107956748096086    0.4756249035087719 Pb
   0.7970782407468189    0.2536528176667510    0.4756249035087719 Pb
   0.2732686509282800    0.1584147664346638    0.4931687631578948 Pb
   0.5589829366425629    0.3012719092918097    0.4931687631578948 Pb
   0.8446972223568512    0.4441290521489485    0.4931687631578948 Pb
   0.1304115080711341    0.5869861950060944    0.4931687631578948 Pb
   0.4161257937854206    0.7298433378632367    0.4931687631578948 Pb
   0.7018400794997071    0.8727004807203809    0.4931687631578948 Pb
   0.9875543652139918    0.0155576235775232    0.4931687631578948 Pb
   0.7018413666755299    0.8726996226031645    0.1510635000000000 Se
   0.9875556523898172    0.0155567654603068    0.1510635000000001 Se
   0.2732699381041011    0.1584139083174492    0.1510635000000000 Se
   0.5589842238183866    0.3012710511745951    0.1510635000000000 Se
   0.8446985095326731    0.4441281940317374    0.1510635000000000 Se
   0.1304127952469578    0.5869853368888780    0.1510635000000000 Se
   0.4161270809612443    0.7298424797460221    0.1510635000000000 Se
   0.3208889197141325    0.3488901427996520    0.1686073596491228 Se
   0.6066032054284189    0.4917472856567944    0.1686073596491228 Se
   0.8923174911427036    0.6346044285139385    0.1686073596491228 Se
   0.1780317768569901    0.7774615713710809    0.1686073596491229 Se
   0.4637460625712766    0.9203187142282214    0.1686073596491229 Se
   0.7494603482855613    0.0631758570853655    0.1686073596491228 Se
   0.0351746339998478    0.2060329999425097    0.1686073596491228 Se
   0.5113650441813071    0.1107949487104243    0.1861512192982456 Se
   0.7970793298955918    0.2536520915675666    0.1861512192982456 Se
   0.0827936156098765    0.3965092344247108    0.1861512192982455 Se
   0.3685079013241630    0.5393663772818531    0.1861512192982456 Se
   0.6542221870384486    0.6822235201389955    0.1861512192982457 Se
   0.9399364727527360    0.8250806629961378    0.1861512192982456 Se
   0.2256507584670215    0.9679378058532819    0.1861512192982456 Se
   0.7018411686484800    0.8726997546211983    0.2036950789473684 Se
   0.9875554543627665    0.0155568974783407    0.2036950789473684 Se
   0.2732697400770530    0.1584140403354830    0.2036950789473684 Se
   0.5589840257913377    0.3012711831926271    0.2036950789473684 Se
   0.8446983115056241    0.4441283260497695    0.2036950789473684 Se
   0.1304125972199088    0.5869854689069136    0.2036950789473684 Se
   0.4161268829341935    0.7298426117640560    0.2036950789473684 Se
   0.8923172931156529    0.6346045605319706    0.2212389385964912 Se
   0.1780315788299403    0.7774617033891147    0.2212389385964913 Se
   0.4637458645442241    0.9203188462462570    0.2212389385964913 Se
   0.7494601502585114    0.0631759891033994    0.2212389385964913 Se
   0.0351744359727970    0.2060331319605435    0.2212389385964913 Se
   0.3208887216870817    0.3488902748176876    0.2212389385964912 Se
   0.6066030074013682    0.4917474176748300    0.2212389385964912 Se
   0.0827934175828275    0.3965093664427428    0.2387827982456140 Se
   0.3685077032971122    0.5393665092998869    0.2387827982456141 Se
   0.6542219890113987    0.6822236521570311    0.2387827982456141 Se
   0.9399362747256852    0.8250807950141716    0.2387827982456141 Se
   0.2256505604399699    0.9679379378713158    0.2387827982456141 Se
   0.5113648461542564    0.1107950807284599    0.2387827982456141 Se
   0.7970791318685411    0.2536522235856022    0.2387827982456141 Se
   0.8446981134785716    0.4441284580678033    0.2563266578947369 Se
   0.1304123991928572    0.5869856009249457    0.2563266578947369 Se
   0.4161266849071437    0.7298427437820880    0.2563266578947369 Se
   0.7018409706214301    0.8726998866392304    0.2563266578947369 Se
   0.9875552563357157    0.0155570294963745    0.2563266578947369 Se
   0.2732695420500022    0.1584141723535168    0.2563266578947369 Se
   0.5589838277642851    0.3012713152106592    0.2563266578947369 Se
   0.4637456665171742    0.9203189782642891    0.2738705175438597 Se
   0.7494599522314616    0.0631761211214314    0.2738705175438597 Se
   0.0351742379457454    0.2060332639785774    0.2738705175438596 Se
   0.3208885236600318    0.3488904068357179    0.2738705175438597 Se
   0.6066028093743183    0.4917475496928603    0.2738705175438597 Se
   0.8923170950886039    0.6346046925500044    0.2738705175438597 Se
   0.1780313808028895    0.7774618354071468    0.2738705175438597 Se
   0.6542217909843488    0.6822237841750631    0.2914143771929825 Se
   0.9399360766986327    0.8250809270322073    0.2914143771929825 Se
   0.2256503624129191    0.9679380698893496    0.2914143771929825 Se
   0.5113646481272065    0.1107952127464920    0.2914143771929825 Se
   0.7970789338414903    0.2536523556036343    0.2914143771929825 Se
   0.0827932195557768    0.3965094984607784    0.2914143771929825 Se
   0.3685075052700615    0.5393666413179226    0.2914143771929825 Se
   0.8446979154515226    0.4441285900858372    0.3089582368421052 Se
   0.1304122011658073    0.5869857329429813    0.3089582368421053 Se
   0.4161264868800938    0.7298428758001236    0.3089582368421052 Se