L=2,4|T=2,0|O=1|d=3.000|a=0.6660|b=0.1894
1.0
   8.1761550739920139    0.0000000000000000    0.0000000000000000
   0.0000000000000000    8.2176550739920131    0.0000000000000000
   0.0000000000000000    0.0000000000000000  116.7759999999999962
Cs Pb S Br
8 40 24 40
direct
   0.5000000000000000    0.0000000000000000    0.2799750000000000 Cs
   0.0000000000000000    0.5000000000000000    0.2799750000000000 Cs
   0.5000000000000000    0.0000000000000000    0.3307149658287408 Cs
   0.0000000000000000    0.5000000000000000    0.3307149658287408 Cs
   0.5000000000000000    0.0000000000000000    0.3814549316574816 Cs
   0.0000000000000000    0.5000000000000000    0.3814549316574816 Cs
   0.5000000000000000    0.0000000000000000    0.4321948974862223 Cs
   0.0000000000000000    0.5000000000000000    0.4321948974862223 Cs
   0.0000000000000000    0.0000000000000000    0.3053449829143704 Pb
   0.5000000000000000    0.5000000000000000    0.3053449829143704 Pb
   0.0000000000000000    0.0000000000000000    0.3560849487431111 Pb
   0.5000000000000000    0.5000000000000000    0.3560849487431111 Pb
   0.0000000000000000    0.0000000000000000    0.4068249145718519 Pb
   0.5000000000000000    0.5000000000000000    0.4068249145718519 Pb
   0.0000000000000000    0.0000000000000000    0.4575648804005927 Pb
   0.5000000000000000    0.5000000000000000    0.4575648804005927 Pb
   0.8503211522555597    0.0401025362267435    0.4979265444125387 Pb
   0.2031211522555596    0.7458025362267439    0.4979265444125387 Pb
   0.2971211522555601    0.2458025362267436    0.4979265444125387 Pb
   0.6499211522555597    0.5401025362267435    0.4979265444125387 Pb
   0.0282211522555598    0.3836025362267436    0.5243156724537581 Pb
   0.4720211522555597    0.8836025362267436    0.5243156724537581 Pb
   0.9720211522555597    0.9674025362267435    0.5336879769959527 Pb
   0.5282211522555595    0.4674025362267435    0.5336879769959527 Pb
   0.7031211522555597    0.1052025362267435    0.5600771050371725 Pb
   0.7971211522555597    0.6052025362267438    0.5600771050371725 Pb
   0.1499211522555597    0.3109025362267436    0.5600771050371725 Pb
   0.3503211522555598    0.8109025362267439    0.5600771050371725 Pb
   0.9720211522555597    0.9674025362267435    0.5864662330783917 Pb
   0.5282211522555595    0.4674025362267435    0.5864662330783917 Pb
   0.0282211522555598    0.3836025362267436    0.5958385376205864 Pb
   0.4720211522555597    0.8836025362267436    0.5958385376205864 Pb
   0.8503211522555597    0.0401025362267435    0.6222276656618060 Pb
   0.2031211522555596    0.7458025362267439    0.6222276656618060 Pb
   0.2971211522555601    0.2458025362267436    0.6222276656618060 Pb
   0.6499211522555597    0.5401025362267435    0.6222276656618060 Pb
   0.0282211522555598    0.3836025362267436    0.6486167937030254 Pb
   0.4720211522555597    0.8836025362267436    0.6486167937030254 Pb
   0.9720211522555597    0.9674025362267435    0.6579890982452202 Pb
   0.5282211522555595    0.4674025362267435    0.6579890982452202 Pb
   0.7031211522555597    0.1052025362267435    0.6843782262864396 Pb
   0.7971211522555597    0.6052025362267438    0.6843782262864396 Pb
   0.1499211522555597    0.3109025362267436    0.6843782262864396 Pb
   0.3503211522555598    0.8109025362267439    0.6843782262864396 Pb
   0.9720211522555597    0.9674025362267435    0.7107673543276589 Pb
   0.5282211522555595    0.4674025362267435    0.7107673543276589 Pb
   0.0282211522555598    0.3836025362267436    0.7201396588698538 Pb
   0.4720211522555597    0.8836025362267436    0.7201396588698538 Pb
   0.0971211522555598    0.9945025362267436    0.4832590121051251 S
   0.4031211522555598    0.4945025362267436    0.4832590121051251 S
   0.0091211522555597    0.3885025362267436    0.4979265444125387 S
   0.4911211522555601    0.8885025362267436    0.4979265444125387 S
   0.0971211522555598    0.9945025362267436    0.5125940767199523 S
   0.4031211522555598    0.4945025362267436    0.5125940767199523 S
   0.9031211522555597    0.3565025362267435    0.5454095727297588 S
   0.5971211522555602    0.8565025362267435    0.5454095727297588 S
   0.9911211522555600    0.9625025362267439    0.5600771050371725 S
   0.5091211522555597    0.4625025362267435    0.5600771050371725 S
   0.9031211522555597    0.3565025362267435    0.5747446373445858 S
   0.5971211522555602    0.8565025362267435    0.5747446373445858 S
   0.0971211522555598    0.9945025362267436    0.6075601333543924 S
   0.4031211522555598    0.4945025362267436    0.6075601333543924 S
   0.0091211522555597    0.3885025362267436    0.6222276656618060 S
   0.4911211522555601    0.8885025362267436    0.6222276656618060 S
   0.0971211522555598    0.9945025362267436    0.6368951979692193 S
   0.4031211522555598    0.4945025362267436    0.6368951979692193 S
   0.9031211522555597    0.3565025362267435    0.6697106939790259 S
   0.5971211522555602    0.8565025362267435    0.6697106939790259 S
   0.9911211522555600    0.9625025362267439    0.6843782262864396 S
   0.5091211522555597    0.4625025362267435    0.6843782262864396 S
   0.9031211522555597    0.3565025362267435    0.6990457585938530 S
   0.5971211522555602    0.8565025362267435    0.6990457585938530 S
   0.0000000000000000    0.0000000000000000    0.2799750000000000 Br
   0.5000000000000000    0.5000000000000000    0.2799750000000000 Br
   0.2500000000000000    0.2500000000000000    0.3053449829143704 Br
   0.7500000000000000    0.7500000000000000    0.3053449829143704 Br
   0.2499999999999999    0.7500000000000000    0.3053449829143704 Br
   0.7500000000000000    0.2499999999999999    0.3053449829143704 Br
   0.0000000000000000    0.0000000000000000    0.3307149658287408 Br
   0.5000000000000000    0.5000000000000000    0.3307149658287408 Br
   0.2500000000000000    0.2500000000000000    0.3560849487431111 Br
   0.7500000000000000    0.7500000000000000    0.3560849487431111 Br
   0.2499999999999999    0.7500000000000000    0.3560849487431111 Br
   0.7500000000000000    0.2499999999999999    0.3560849487431111 Br
   0.0000000000000000    0.0000000000000000    0.3814549316574816 Br
   0.5000000000000000    0.5000000000000000    0.3814549316574816 Br
   0.2500000000000000    0.2500000000000000    0.4068249145718519 Br
   0.7500000000000000    0.7500000000000000    0.4068249145718519 Br
   0.2499999999999999    0.7500000000000000    0.4068249145718519 Br
   0.7500000000000000    0.2499999999999999    0.4068249145718519 Br
   0.0000000000000000    0.0000000000000000    0.4321948974862223 Br
   0.5000000000000000    0.5000000000000000    0.4321948974862223 Br
   0.2500000000000000    0.2500000000000000    0.4575648804005927 Br
   0.7500000000000000    0.7500000000000000    0.4575648804005927 Br
   0.2499999999999999    0.7500000000000000    0.4575648804005927 Br
   0.7500000000000000    0.2499999999999999    0.4575648804005927 Br
   0.6660211522555597    0.1894025362267436    0.5158631962088079 Br
   0.8342211522555597    0.6894025362267435    0.5158631962088079 Br
   0.1660211522555597    0.6616025362267436    0.5421404532409030 Br
   0.3342211522555596    0.1616025362267435    0.5421404532409030 Br
   0.1660211522555597    0.6616025362267436    0.5780137568334415 Br
   0.3342211522555596    0.1616025362267435    0.5780137568334415 Br
   0.6660211522555597    0.1894025362267436    0.6042910138655367 Br
   0.8342211522555597    0.6894025362267435    0.6042910138655367 Br
   0.6660211522555597    0.1894025362267436    0.6401643174580753 Br
   0.8342211522555597    0.6894025362267435    0.6401643174580753 Br
   0.1660211522555597    0.6616025362267436    0.6664415744901703 Br
   0.3342211522555596    0.1616025362267435    0.6664415744901703 Br
   0.1660211522555597    0.6616025362267436    0.7023148780827089 Br
   0.3342211522555596    0.1616025362267435    0.7023148780827089 Br
   0.6660211522555597    0.1894025362267436    0.7285921351148039 Br
   0.8342211522555597    0.6894025362267435    0.7285921351148039 Br
