Pb6 S4 Br4
1.0
   8.1761550739920139    0.0000000000000000    0.0000000000000000
   0.0000000000000000    8.2176550739920131    0.0000000000000000
   0.0000000000000000    0.0000000000000000  116.7759999999999962
Pb S Br
6 4 4
direct
   0.0000000000000000    0.0000000000000000    0.4575648804005927 Pb
   0.5000000000000000    0.5000000000000000    0.4575648804005927 Pb
   0.8503211522555597    0.0401025362267435    0.4979265444125387 Pb
   0.2031211522555596    0.7458025362267439    0.4979265444125387 Pb
   0.2971211522555601    0.2458025362267436    0.4979265444125387 Pb
   0.6499211522555597    0.5401025362267435    0.4979265444125387 Pb
   0.0971211522555598    0.9945025362267436    0.4832590121051251 S
   0.4031211522555598    0.4945025362267436    0.4832590121051251 S
   0.0091211522555597    0.3885025362267436    0.4979265444125387 S
   0.4911211522555601    0.8885025362267436    0.4979265444125387 S
   0.2500000000000000    0.2500000000000000    0.4575648804005927 Br
   0.7500000000000000    0.7500000000000000    0.4575648804005927 Br
   0.2499999999999999    0.7500000000000000    0.4575648804005927 Br
   0.7500000000000000    0.2499999999999999    0.4575648804005927 Br
