L=2|T=2|O=True
1.0
   8.0950000000000006    0.0000000000000000    0.0000000000000000
   0.0000000000000000    8.1780000000000008    0.0000000000000000
   0.0000000000000000    0.0000000000000000   58.9279999999999973
Pb S Br
32 24 16
direct
   0.1843000000000000    0.8507000000000000    0.2827870000000000 Pb
   0.5371000000000000    0.5564000000000000    0.2827870000000000 Pb
   0.6311000000000000    0.0564000000000000    0.2827870000000000 Pb
   0.9839000000000000    0.3507000000000000    0.2827870000000000 Pb
   0.3622000000000000    0.1942000000000000    0.3358620000000000 Pb
   0.8060000000000000    0.6942000000000000    0.3358620000000000 Pb
   0.3060000000000000    0.7780000000000000    0.3547120000000000 Pb
   0.8622000000000000    0.2780000000000000    0.3547120000000000 Pb
   0.0371000000000000    0.9157999999999999    0.4077870000000000 Pb
   0.1311000000000000    0.4158000000000000    0.4077870000000000 Pb
   0.4839000000000000    0.1215000000000000    0.4077870000000000 Pb
   0.6843000000000000    0.6215000000000001    0.4077870000000000 Pb
   0.3060000000000000    0.7780000000000000    0.4608620000000000 Pb
   0.8622000000000000    0.2780000000000000    0.4608620000000000 Pb
   0.3622000000000000    0.1942000000000000    0.4797120000000000 Pb
   0.8060000000000000    0.6942000000000000    0.4797120000000000 Pb
   0.1843000000000000    0.8507000000000000    0.5327880000000000 Pb
   0.5371000000000000    0.5564000000000000    0.5327880000000000 Pb
   0.6311000000000000    0.0564000000000000    0.5327880000000000 Pb
   0.9839000000000000    0.3507000000000000    0.5327880000000000 Pb
   0.3622000000000000    0.1942000000000000    0.5858620000000000 Pb
   0.8060000000000000    0.6942000000000000    0.5858620000000000 Pb
   0.3060000000000000    0.7780000000000000    0.6047120000000000 Pb
   0.8622000000000000    0.2780000000000000    0.6047120000000000 Pb
   0.0371000000000000    0.9157999999999999    0.6577880000000000 Pb
   0.1311000000000000    0.4158000000000000    0.6577880000000000 Pb
   0.4839000000000000    0.1215000000000000    0.6577880000000000 Pb
   0.6843000000000000    0.6215000000000001    0.6577880000000000 Pb
   0.3060000000000000    0.7780000000000000    0.7108620000000000 Pb
   0.8622000000000000    0.2780000000000000    0.7108620000000000 Pb
   0.3622000000000000    0.1942000000000000    0.7297120000000000 Pb
   0.8060000000000000    0.6942000000000000    0.7297120000000000 Pb
   0.4311000000000000    0.8051000000000000    0.2532880000000000 S
   0.7371000000000000    0.3051000000000000    0.2532880000000000 S
   0.3431000000000000    0.1991000000000000    0.2827870000000000 S
   0.8250999999999999    0.6991000000000001    0.2827870000000000 S
   0.4311000000000000    0.8051000000000000    0.3122880000000000 S
   0.7371000000000000    0.3051000000000000    0.3122880000000000 S
   0.2371000000000000    0.1671000000000000    0.3782870000000000 S
   0.9311000000000000    0.6671000000000000    0.3782870000000000 S
   0.3251000000000000    0.7731000000000000    0.4077870000000000 S
   0.8431000000000000    0.2731000000000000    0.4077870000000000 S
   0.2371000000000000    0.1671000000000000    0.4372880000000000 S
   0.9311000000000000    0.6671000000000000    0.4372880000000000 S
   0.4311000000000000    0.8051000000000000    0.5032880000000000 S
   0.7371000000000000    0.3051000000000000    0.5032880000000000 S
   0.3431000000000000    0.1991000000000000    0.5327880000000000 S
   0.8250999999999999    0.6991000000000001    0.5327880000000000 S
   0.4311000000000000    0.8051000000000000    0.5622870000000000 S
   0.7371000000000000    0.3051000000000000    0.5622870000000000 S
   0.2371000000000000    0.1671000000000000    0.6282870000000000 S
   0.9311000000000000    0.6671000000000000    0.6282870000000000 S
   0.3251000000000000    0.7731000000000000    0.6577880000000000 S
   0.8431000000000000    0.2731000000000000    0.6577880000000000 S
   0.2371000000000000    0.1671000000000000    0.6872870000000000 S
   0.9311000000000000    0.6671000000000000    0.6872870000000000 S
   0.0000000000000000    0.0000000000000000    0.3188620000000000 Br
   0.1682000000000000    0.5000000000000000    0.3188620000000000 Br
   0.5000000000000000    0.4722000000000000    0.3717120000000000 Br
   0.6682000000000000    0.9722000000000000    0.3717120000000000 Br
   0.5000000000000000    0.4722000000000000    0.4438620000000000 Br
   0.6682000000000000    0.9722000000000000    0.4438620000000000 Br
   0.0000000000000000    0.0000000000000000    0.4967120000000000 Br
   0.1682000000000000    0.5000000000000000    0.4967120000000000 Br
   0.0000000000000000    0.0000000000000000    0.5688620000000000 Br
   0.1682000000000000    0.5000000000000000    0.5688620000000000 Br
   0.5000000000000000    0.4722000000000000    0.6217120000000000 Br
   0.6682000000000000    0.9722000000000000    0.6217120000000000 Br
   0.5000000000000000    0.4722000000000000    0.6938620000000000 Br
   0.6682000000000000    0.9722000000000000    0.6938620000000000 Br
   0.0000000000000000    0.0000000000000000    0.7467120000000000 Br
   0.1682000000000000    0.5000000000000000    0.7467120000000000 Br
