Pb4 S2 Br6
1.0
   8.1761550739920139    0.0000000000000000    0.0000000000000000
   0.0000000000000000    8.2176550739920131    0.0000000000000000
   0.0000000000000000    0.0000000000000000  110.9372000000000043
Pb S Br
4 2 6
direct
   0.0000000000000000    0.0000000000000000    0.4585437162111503 Pb
   0.5000000000000000    0.5000000000000000    0.4585437162111503 Pb
   0.5278378854066587    0.9913865219613003    0.4808307267427645 Pb
   0.9716378854066584    0.4913865219613006    0.4808307267427645 Pb
   0.5967378854066584    0.6022865219613003    0.4931692485678232 S
   0.9027378854066583    0.1022865219613002    0.4931692485678232 S
   0.2500000000000000    0.2500000000000000    0.4585437162111503 Br
   0.7500000000000000    0.7500000000000000    0.4585437162111503 Br
   0.2499999999999999    0.7500000000000000    0.4585437162111503 Br
   0.7500000000000000    0.2499999999999999    0.4585437162111503 Br
   0.1656378854066585    0.7971865219613004    0.4897280701585016 Br
   0.3338378854066584    0.2971865219613002    0.4897280701585016 Br
