L=2,4|T=0,0|O=1|d=2.472|a=0.4716|b=-0.4248
1.0
   8.1761550739920139    0.0000000000000000    0.0000000000000000
   0.0000000000000000    8.2176550739920131    0.0000000000000000
   0.0000000000000000    0.0000000000000000  110.9372000000000043
Cs Pb S Br
8 40 24 40
direct
   0.5000000000000000    0.0000000000000000    0.2716070000000000 Cs
   0.0000000000000000    0.5000000000000000    0.2716070000000000 Cs
   0.5000000000000000    0.0000000000000000    0.3250174903460429 Cs
   0.0000000000000000    0.5000000000000000    0.3250174903460429 Cs
   0.5000000000000000    0.0000000000000000    0.3784279806920857 Cs
   0.0000000000000000    0.5000000000000000    0.3784279806920857 Cs
   0.5000000000000000    0.0000000000000000    0.4318384710381288 Cs
   0.0000000000000000    0.5000000000000000    0.4318384710381288 Cs
   0.0000000000000000    0.0000000000000000    0.2983122451730215 Pb
   0.5000000000000000    0.5000000000000000    0.2983122451730215 Pb
   0.0000000000000000    0.0000000000000000    0.3517227355190643 Pb
   0.5000000000000000    0.5000000000000000    0.3517227355190643 Pb
   0.0000000000000000    0.0000000000000000    0.4051332258651071 Pb
   0.5000000000000000    0.5000000000000000    0.4051332258651071 Pb
   0.0000000000000000    0.0000000000000000    0.4585437162111503 Pb
   0.5000000000000000    0.5000000000000000    0.4585437162111503 Pb
   0.5278378854066587    0.9913865219613003    0.4808307267427645 Pb
   0.9716378854066584    0.4913865219613006    0.4808307267427645 Pb
   0.7027378854066584    0.3535865219613006    0.5086087562598376 Pb
   0.7967378854066587    0.8535865219613001    0.5086087562598376 Pb
   0.1495378854066582    0.1478865219613003    0.5086087562598376 Pb
   0.3499378854066584    0.6478865219613004    0.5086087562598376 Pb
   0.5278378854066587    0.9913865219613003    0.5363867857769107 Pb
   0.9716378854066584    0.4913865219613006    0.5363867857769107 Pb
   0.4716378854066584    0.5751865219613004    0.5462523695055367 Pb
   0.0278378854066585    0.0751865219613002    0.5462523695055367 Pb
   0.6495378854066585    0.9186865219613003    0.5740303990226098 Pb
   0.8499378854066584    0.4186865219613002    0.5740303990226098 Pb
   0.2027378854066586    0.7129865219613002    0.5740303990226098 Pb
   0.2967378854066589    0.2129865219613002    0.5740303990226098 Pb
   0.4716378854066584    0.5751865219613004    0.6018084285396829 Pb
   0.0278378854066585    0.0751865219613002    0.6018084285396829 Pb
   0.5278378854066587    0.9913865219613003    0.6116740122683090 Pb
   0.9716378854066584    0.4913865219613006    0.6116740122683090 Pb
   0.7027378854066584    0.3535865219613006    0.6394520417853818 Pb
   0.7967378854066587    0.8535865219613001    0.6394520417853818 Pb
   0.1495378854066582    0.1478865219613003    0.6394520417853818 Pb
   0.3499378854066584    0.6478865219613004    0.6394520417853818 Pb
   0.5278378854066587    0.9913865219613003    0.6672300713024552 Pb
   0.9716378854066584    0.4913865219613006    0.6672300713024552 Pb
   0.4716378854066584    0.5751865219613004    0.6770956550310810 Pb
   0.0278378854066585    0.0751865219613002    0.6770956550310810 Pb
   0.6495378854066585    0.9186865219613003    0.7048736845481544 Pb
   0.8499378854066584    0.4186865219613002    0.7048736845481544 Pb
   0.2027378854066586    0.7129865219613002    0.7048736845481544 Pb
   0.2967378854066589    0.2129865219613002    0.7048736845481544 Pb
   0.4716378854066584    0.5751865219613004    0.7326517140652274 Pb
   0.0278378854066585    0.0751865219613002    0.7326517140652274 Pb
   0.5967378854066584    0.6022865219613003    0.4931692485678232 S
   0.9027378854066583    0.1022865219613002    0.4931692485678232 S
   0.5087378854066584    0.9962865219613002    0.5086087562598376 S
   0.9907378854066585    0.4962865219613002    0.5086087562598376 S
   0.5967378854066584    0.6022865219613003    0.5240482639518518 S
   0.9027378854066583    0.1022865219613002    0.5240482639518518 S
   0.0967378854066583    0.4642865219613002    0.5585908913305956 S
   0.4027378854066588    0.9642865219613004    0.5585908913305956 S
   0.4907378854066585    0.5702865219613000    0.5740303990226098 S
   0.0087378854066584    0.0702865219613002    0.5740303990226098 S
   0.0967378854066583    0.4642865219613002    0.5894699067146238 S
   0.4027378854066588    0.9642865219613004    0.5894699067146238 S
   0.5967378854066584    0.6022865219613003    0.6240125340933679 S
   0.9027378854066583    0.1022865219613002    0.6240125340933679 S
   0.5087378854066584    0.9962865219613002    0.6394520417853818 S
   0.9907378854066585    0.4962865219613002    0.6394520417853818 S
   0.5967378854066584    0.6022865219613003    0.6548915494773963 S
   0.9027378854066583    0.1022865219613002    0.6548915494773963 S
   0.0967378854066583    0.4642865219613002    0.6894341768561399 S
   0.4027378854066588    0.9642865219613004    0.6894341768561399 S
   0.4907378854066585    0.5702865219613000    0.7048736845481544 S
   0.0087378854066584    0.0702865219613002    0.7048736845481544 S
   0.0967378854066583    0.4642865219613002    0.7203131922401684 S
   0.4027378854066588    0.9642865219613004    0.7203131922401684 S
   0.0000000000000000    0.0000000000000000    0.2716070000000000 Br
   0.5000000000000000    0.5000000000000000    0.2716070000000000 Br
   0.2500000000000000    0.2500000000000000    0.2983122451730215 Br
   0.7500000000000000    0.7500000000000000    0.2983122451730215 Br
   0.2499999999999999    0.7500000000000000    0.2983122451730215 Br
   0.7500000000000000    0.2499999999999999    0.2983122451730215 Br
   0.0000000000000000    0.0000000000000000    0.3250174903460429 Br
   0.5000000000000000    0.5000000000000000    0.3250174903460429 Br
   0.2500000000000000    0.2500000000000000    0.3517227355190643 Br
   0.7500000000000000    0.7500000000000000    0.3517227355190643 Br
   0.2499999999999999    0.7500000000000000    0.3517227355190643 Br
   0.7500000000000000    0.2499999999999999    0.3517227355190643 Br
   0.0000000000000000    0.0000000000000000    0.3784279806920857 Br
   0.5000000000000000    0.5000000000000000    0.3784279806920857 Br
   0.2500000000000000    0.2500000000000000    0.4051332258651071 Br
   0.7500000000000000    0.7500000000000000    0.4051332258651071 Br
   0.2499999999999999    0.7500000000000000    0.4051332258651071 Br
   0.7500000000000000    0.2499999999999999    0.4051332258651071 Br
   0.0000000000000000    0.0000000000000000    0.4318384710381288 Br
   0.5000000000000000    0.5000000000000000    0.4318384710381288 Br
   0.2500000000000000    0.2500000000000000    0.4585437162111503 Br
   0.7500000000000000    0.7500000000000000    0.4585437162111503 Br
   0.2499999999999999    0.7500000000000000    0.4585437162111503 Br
   0.7500000000000000    0.2499999999999999    0.4585437162111503 Br
   0.1656378854066585    0.7971865219613004    0.4897280701585016 Br
   0.3338378854066584    0.2971865219613002    0.4897280701585016 Br
   0.1656378854066585    0.7971865219613004    0.5274894423611737 Br
   0.3338378854066584    0.2971865219613002    0.5274894423611737 Br
   0.6656378854066585    0.2693865219613003    0.5551497129212738 Br
   0.8338378854066584    0.7693865219613004    0.5551497129212738 Br
   0.6656378854066585    0.2693865219613003    0.5929110851239457 Br
   0.8338378854066584    0.7693865219613004    0.5929110851239457 Br
   0.1656378854066585    0.7971865219613004    0.6205713556840460 Br
   0.3338378854066584    0.2971865219613002    0.6205713556840460 Br
   0.1656378854066585    0.7971865219613004    0.6583327278867180 Br
   0.3338378854066584    0.2971865219613002    0.6583327278867180 Br
   0.6656378854066585    0.2693865219613003    0.6859929984468179 Br
   0.8338378854066584    0.7693865219613004    0.6859929984468179 Br
   0.6656378854066585    0.2693865219613003    0.7237543706494903 Br
   0.8338378854066584    0.7693865219613004    0.7237543706494903 Br
