Cs2 S4 Br4
1.0
   8.1761550739920139    0.0000000000000000    0.0000000000000000
   0.0000000000000000    8.2176550739920131    0.0000000000000000
   0.0000000000000000    0.0000000000000000  110.9372000000000043
Cs S Br
2 4 4
direct
   0.5000000000000000    0.0000000000000000    0.4580597162111503 Cs
   0.0000000000000000    0.5000000000000000    0.4580597162111503 Cs
   0.5992040931175917    0.0726031805379337    0.4967381343577095 S
   0.9052040931175921    0.5726031805379337    0.4967381343577095 S
   0.9932040931175918    0.9666031805379338    0.5121776420497236 S
   0.5112040931175919    0.4666031805379336    0.5121776420497236 S
   0.0000000000000000    0.0000000000000000    0.4580597162111503 Br
   0.5000000000000000    0.5000000000000000    0.4580597162111503 Br
   0.1681040931175921    0.2675031805379335    0.4932969559483876 Br
   0.3363040931175918    0.7675031805379336    0.4932969559483876 Br
