L=2,4|T=1,1|O=1|d=3.909|a=0.5303|b=0.4617
1.0
   8.1761550739920139    0.0000000000000000    0.0000000000000000
   0.0000000000000000    8.2176550739920131    0.0000000000000000
   0.0000000000000000    0.0000000000000000  110.9372000000000043
Cs Pb S Br
8 40 24 40
direct
   0.5000000000000000    0.0000000000000000    0.2978282451730215 Cs
   0.0000000000000000    0.5000000000000000    0.2978282451730215 Cs
   0.5000000000000000    0.0000000000000000    0.3512387355190644 Cs
   0.0000000000000000    0.5000000000000000    0.3512387355190644 Cs
   0.5000000000000000    0.0000000000000000    0.4046492258651073 Cs
   0.0000000000000000    0.5000000000000000    0.4046492258651073 Cs
   0.5000000000000000    0.0000000000000000    0.4580597162111503 Cs
   0.0000000000000000    0.5000000000000000    0.4580597162111503 Cs
   0.0000000000000000    0.0000000000000000    0.2711230000000000 Pb
   0.5000000000000000    0.5000000000000000    0.2711230000000000 Pb
   0.0000000000000000    0.0000000000000000    0.3245334903460430 Pb
   0.5000000000000000    0.5000000000000000    0.3245334903460430 Pb
   0.0000000000000000    0.0000000000000000    0.3779439806920858 Pb
   0.5000000000000000    0.5000000000000000    0.3779439806920858 Pb
   0.0000000000000000    0.0000000000000000    0.4313544710381288 Pb
   0.5000000000000000    0.5000000000000000    0.4313544710381288 Pb
   0.7052040931175918    0.8239031805379338    0.5121776420497236 Pb
   0.7992040931175917    0.3239031805379341    0.5121776420497236 Pb
   0.1520040931175917    0.6182031805379338    0.5121776420497236 Pb
   0.3524040931175918    0.1182031805379335    0.5121776420497236 Pb
   0.5303040931175917    0.4617031805379336    0.5399556715667969 Pb
   0.9741040931175917    0.9617031805379339    0.5399556715667969 Pb
   0.0303040931175917    0.5455031805379339    0.5498212552954229 Pb
   0.4741040931175922    0.0455031805379336    0.5498212552954229 Pb
   0.6520040931175918    0.3890031805379337    0.5775992848124958 Pb
   0.8524040931175920    0.8890031805379338    0.5775992848124958 Pb
   0.2052040931175918    0.1833031805379338    0.5775992848124958 Pb
   0.2992040931175919    0.6833031805379337    0.5775992848124958 Pb
   0.0303040931175917    0.5455031805379339    0.6053773143295689 Pb
   0.4741040931175922    0.0455031805379336    0.6053773143295689 Pb
   0.5303040931175917    0.4617031805379336    0.6152428980581951 Pb
   0.9741040931175917    0.9617031805379339    0.6152428980581951 Pb
   0.7052040931175918    0.8239031805379338    0.6430209275752682 Pb
   0.7992040931175917    0.3239031805379341    0.6430209275752682 Pb
   0.1520040931175917    0.6182031805379338    0.6430209275752682 Pb
   0.3524040931175918    0.1182031805379335    0.6430209275752682 Pb
   0.5303040931175917    0.4617031805379336    0.6707989570923409 Pb
   0.9741040931175917    0.9617031805379339    0.6707989570923409 Pb
   0.0303040931175917    0.5455031805379339    0.6806645408209673 Pb
   0.4741040931175922    0.0455031805379336    0.6806645408209673 Pb
   0.6520040931175918    0.3890031805379337    0.7084425703380404 Pb
   0.8524040931175920    0.8890031805379338    0.7084425703380404 Pb
   0.2052040931175918    0.1833031805379338    0.7084425703380404 Pb
   0.2992040931175919    0.6833031805379337    0.7084425703380404 Pb
   0.0303040931175917    0.5455031805379339    0.7362205998551135 Pb
   0.4741040931175922    0.0455031805379336    0.7362205998551135 Pb
   0.5303040931175917    0.4617031805379336    0.7460861835837397 Pb
   0.9741040931175917    0.9617031805379339    0.7460861835837397 Pb
   0.5992040931175917    0.0726031805379337    0.4967381343577095 S
   0.9052040931175921    0.5726031805379337    0.4967381343577095 S
   0.9932040931175918    0.9666031805379338    0.5121776420497236 S
   0.5112040931175919    0.4666031805379336    0.5121776420497236 S
   0.5992040931175917    0.0726031805379337    0.5276171497417380 S
   0.9052040931175921    0.5726031805379337    0.5276171497417380 S
   0.0992040931175917    0.9346031805379338    0.5621597771204817 S
   0.4052040931175918    0.4346031805379341    0.5621597771204817 S
   0.0112040931175916    0.5406031805379339    0.5775992848124958 S
   0.4932040931175918    0.0406031805379337    0.5775992848124958 S
   0.0992040931175917    0.9346031805379338    0.5930387925045103 S
   0.4052040931175918    0.4346031805379341    0.5930387925045103 S
   0.5992040931175917    0.0726031805379337    0.6275814198832539 S
   0.9052040931175921    0.5726031805379337    0.6275814198832539 S
   0.9932040931175918    0.9666031805379338    0.6430209275752682 S
   0.5112040931175919    0.4666031805379336    0.6430209275752682 S
   0.5992040931175917    0.0726031805379337    0.6584604352672824 S
   0.9052040931175921    0.5726031805379337    0.6584604352672824 S
   0.0992040931175917    0.9346031805379338    0.6930030626460261 S
   0.4052040931175918    0.4346031805379341    0.6930030626460261 S
   0.0112040931175916    0.5406031805379339    0.7084425703380404 S
   0.4932040931175918    0.0406031805379337    0.7084425703380404 S
   0.0992040931175917    0.9346031805379338    0.7238820780300543 S
   0.4052040931175918    0.4346031805379341    0.7238820780300543 S
   0.2500000000000000    0.2500000000000000    0.2711230000000000 Br
   0.7500000000000000    0.7500000000000000    0.2711230000000000 Br
   0.2499999999999999    0.7500000000000000    0.2711230000000000 Br
   0.7500000000000000    0.2499999999999999    0.2711230000000000 Br
   0.0000000000000000    0.0000000000000000    0.2978282451730215 Br
   0.5000000000000000    0.5000000000000000    0.2978282451730215 Br
   0.2500000000000000    0.2500000000000000    0.3245334903460430 Br
   0.7500000000000000    0.7500000000000000    0.3245334903460430 Br
   0.2499999999999999    0.7500000000000000    0.3245334903460430 Br
   0.7500000000000000    0.2499999999999999    0.3245334903460430 Br
   0.0000000000000000    0.0000000000000000    0.3512387355190644 Br
   0.5000000000000000    0.5000000000000000    0.3512387355190644 Br
   0.2500000000000000    0.2500000000000000    0.3779439806920858 Br
   0.7500000000000000    0.7500000000000000    0.3779439806920858 Br
   0.2499999999999999    0.7500000000000000    0.3779439806920858 Br
   0.7500000000000000    0.2499999999999999    0.3779439806920858 Br
   0.0000000000000000    0.0000000000000000    0.4046492258651073 Br
   0.5000000000000000    0.5000000000000000    0.4046492258651073 Br
   0.2500000000000000    0.2500000000000000    0.4313544710381288 Br
   0.7500000000000000    0.7500000000000000    0.4313544710381288 Br
   0.2499999999999999    0.7500000000000000    0.4313544710381288 Br
   0.7500000000000000    0.2499999999999999    0.4313544710381288 Br
   0.0000000000000000    0.0000000000000000    0.4580597162111503 Br
   0.5000000000000000    0.5000000000000000    0.4580597162111503 Br
   0.1681040931175921    0.2675031805379335    0.4932969559483876 Br
   0.3363040931175918    0.7675031805379336    0.4932969559483876 Br
   0.1681040931175921    0.2675031805379335    0.5310583281510599 Br
   0.3363040931175918    0.7675031805379336    0.5310583281510599 Br
   0.6681040931175918    0.7397031805379339    0.5587185987111600 Br
   0.8363040931175918    0.2397031805379338    0.5587185987111600 Br
   0.6681040931175918    0.7397031805379339    0.5964799709138320 Br
   0.8363040931175918    0.2397031805379338    0.5964799709138320 Br
   0.1681040931175921    0.2675031805379335    0.6241402414739321 Br
   0.3363040931175918    0.7675031805379336    0.6241402414739321 Br
   0.1681040931175921    0.2675031805379335    0.6619016136766042 Br
   0.3363040931175918    0.7675031805379336    0.6619016136766042 Br
   0.6681040931175918    0.7397031805379339    0.6895618842367045 Br
   0.8363040931175918    0.2397031805379338    0.6895618842367045 Br
   0.6681040931175918    0.7397031805379339    0.7273232564393763 Br
   0.8363040931175918    0.2397031805379338    0.7273232564393763 Br
