Cs2 Pb4 S4 Br2
1.0
   8.1761550739920139    0.0000000000000000    0.0000000000000000
   0.0000000000000000    8.2176550739920131    0.0000000000000000
   0.0000000000000000    0.0000000000000000  116.7759999999999962
Cs Pb S Br
2 4 4 2
direct
   0.5000000000000000    0.0000000000000000    0.4575648804005927 Cs
   0.0000000000000000    0.5000000000000000    0.4575648804005927 Cs
   0.3501916280878519    0.0016799820230606    0.5062751489259409 Pb
   0.7029916280878519    0.7073799820230610    0.5062751489259409 Pb
   0.7969916280878526    0.2073799820230607    0.5062751489259409 Pb
   0.1497916280878517    0.5016799820230606    0.5062751489259409 Pb
   0.5969916280878519    0.9560799820230607    0.4916076166185273 S
   0.9029916280878518    0.4560799820230607    0.4916076166185273 S
   0.5089916280878519    0.3500799820230606    0.5062751489259409 S
   0.9909916280878523    0.8500799820230607    0.5062751489259409 S
   0.0000000000000000    0.0000000000000000    0.4575648804005927 Br
   0.5000000000000000    0.5000000000000000    0.4575648804005927 Br
