L=2,4|T=2,1|O=1|d=3.975|a=0.1659|b=0.1510
1.0
   8.1761550739920139    0.0000000000000000    0.0000000000000000
   0.0000000000000000    8.2176550739920131    0.0000000000000000
   0.0000000000000000    0.0000000000000000  116.7759999999999962
Cs Pb S Br
8 40 24 40
direct
   0.5000000000000000    0.0000000000000000    0.3053449829143704 Cs
   0.0000000000000000    0.5000000000000000    0.3053449829143704 Cs
   0.5000000000000000    0.0000000000000000    0.3560849487431111 Cs
   0.0000000000000000    0.5000000000000000    0.3560849487431111 Cs
   0.5000000000000000    0.0000000000000000    0.4068249145718519 Cs
   0.0000000000000000    0.5000000000000000    0.4068249145718519 Cs
   0.5000000000000000    0.0000000000000000    0.4575648804005927 Cs
   0.0000000000000000    0.5000000000000000    0.4575648804005927 Cs
   0.0000000000000000    0.0000000000000000    0.2799750000000000 Pb
   0.5000000000000000    0.5000000000000000    0.2799750000000000 Pb
   0.0000000000000000    0.0000000000000000    0.3307149658287408 Pb
   0.5000000000000000    0.5000000000000000    0.3307149658287408 Pb
   0.0000000000000000    0.0000000000000000    0.3814549316574816 Pb
   0.5000000000000000    0.5000000000000000    0.3814549316574816 Pb
   0.0000000000000000    0.0000000000000000    0.4321948974862223 Pb
   0.5000000000000000    0.5000000000000000    0.4321948974862223 Pb
   0.3501916280878519    0.0016799820230606    0.5062751489259409 Pb
   0.7029916280878519    0.7073799820230610    0.5062751489259409 Pb
   0.7969916280878526    0.2073799820230607    0.5062751489259409 Pb
   0.1497916280878517    0.5016799820230606    0.5062751489259409 Pb
   0.5280916280878519    0.3451799820230606    0.5326642769671602 Pb
   0.9718916280878520    0.8451799820230607    0.5326642769671602 Pb
   0.4718916280878519    0.9289799820230606    0.5420365815093550 Pb
   0.0280916280878518    0.4289799820230606    0.5420365815093550 Pb
   0.2029916280878519    0.0667799820230606    0.5684257095505745 Pb
   0.2969916280878519    0.5667799820230606    0.5684257095505745 Pb
   0.6497916280878520    0.2724799820230606    0.5684257095505745 Pb
   0.8501916280878521    0.7724799820230610    0.5684257095505745 Pb
   0.4718916280878519    0.9289799820230606    0.5948148375917939 Pb
   0.0280916280878518    0.4289799820230606    0.5948148375917939 Pb
   0.5280916280878519    0.3451799820230606    0.6041871421339886 Pb
   0.9718916280878520    0.8451799820230607    0.6041871421339886 Pb
   0.3501916280878519    0.0016799820230606    0.6305762701752081 Pb
   0.7029916280878519    0.7073799820230610    0.6305762701752081 Pb
   0.7969916280878526    0.2073799820230607    0.6305762701752081 Pb
   0.1497916280878517    0.5016799820230606    0.6305762701752081 Pb
   0.5280916280878519    0.3451799820230606    0.6569653982164274 Pb
   0.9718916280878520    0.8451799820230607    0.6569653982164274 Pb
   0.4718916280878519    0.9289799820230606    0.6663377027586223 Pb
   0.0280916280878518    0.4289799820230606    0.6663377027586223 Pb
   0.2029916280878519    0.0667799820230606    0.6927268307998418 Pb
   0.2969916280878519    0.5667799820230606    0.6927268307998418 Pb
   0.6497916280878520    0.2724799820230606    0.6927268307998418 Pb
   0.8501916280878521    0.7724799820230610    0.6927268307998418 Pb
   0.4718916280878519    0.9289799820230606    0.7191159588410612 Pb
   0.0280916280878518    0.4289799820230606    0.7191159588410612 Pb
   0.5280916280878519    0.3451799820230606    0.7284882633832559 Pb
   0.9718916280878520    0.8451799820230607    0.7284882633832559 Pb
   0.5969916280878519    0.9560799820230607    0.4916076166185273 S
   0.9029916280878518    0.4560799820230607    0.4916076166185273 S
   0.5089916280878519    0.3500799820230606    0.5062751489259409 S
   0.9909916280878523    0.8500799820230607    0.5062751489259409 S
   0.5969916280878519    0.9560799820230607    0.5209426812333544 S
   0.9029916280878518    0.4560799820230607    0.5209426812333544 S
   0.4029916280878519    0.3180799820230606    0.5537581772431610 S
   0.0969916280878522    0.8180799820230606    0.5537581772431610 S
   0.4909916280878521    0.9240799820230610    0.5684257095505745 S
   0.0089916280878519    0.4240799820230606    0.5684257095505745 S
   0.4029916280878519    0.3180799820230606    0.5830932418579881 S
   0.0969916280878522    0.8180799820230606    0.5830932418579881 S
   0.5969916280878519    0.9560799820230607    0.6159087378677945 S
   0.9029916280878518    0.4560799820230607    0.6159087378677945 S
   0.5089916280878519    0.3500799820230606    0.6305762701752081 S
   0.9909916280878523    0.8500799820230607    0.6305762701752081 S
   0.5969916280878519    0.9560799820230607    0.6452438024826216 S
   0.9029916280878518    0.4560799820230607    0.6452438024826216 S
   0.4029916280878519    0.3180799820230606    0.6780592984924282 S
   0.0969916280878522    0.8180799820230606    0.6780592984924282 S
   0.4909916280878521    0.9240799820230610    0.6927268307998418 S
   0.0089916280878519    0.4240799820230606    0.6927268307998418 S
   0.4029916280878519    0.3180799820230606    0.7073943631072552 S
   0.0969916280878522    0.8180799820230606    0.7073943631072552 S
   0.2500000000000000    0.2500000000000000    0.2799750000000000 Br
   0.7500000000000000    0.7500000000000000    0.2799750000000000 Br
   0.2499999999999999    0.7500000000000000    0.2799750000000000 Br
   0.7500000000000000    0.2499999999999999    0.2799750000000000 Br
   0.0000000000000000    0.0000000000000000    0.3053449829143704 Br
   0.5000000000000000    0.5000000000000000    0.3053449829143704 Br
   0.2500000000000000    0.2500000000000000    0.3307149658287408 Br
   0.7500000000000000    0.7500000000000000    0.3307149658287408 Br
   0.2499999999999999    0.7500000000000000    0.3307149658287408 Br
   0.7500000000000000    0.2499999999999999    0.3307149658287408 Br
   0.0000000000000000    0.0000000000000000    0.3560849487431111 Br
   0.5000000000000000    0.5000000000000000    0.3560849487431111 Br
   0.2500000000000000    0.2500000000000000    0.3814549316574816 Br
   0.7500000000000000    0.7500000000000000    0.3814549316574816 Br
   0.2499999999999999    0.7500000000000000    0.3814549316574816 Br
   0.7500000000000000    0.2499999999999999    0.3814549316574816 Br
   0.0000000000000000    0.0000000000000000    0.4068249145718519 Br
   0.5000000000000000    0.5000000000000000    0.4068249145718519 Br
   0.2500000000000000    0.2500000000000000    0.4321948974862223 Br
   0.7500000000000000    0.7500000000000000    0.4321948974862223 Br
   0.2499999999999999    0.7500000000000000    0.4321948974862223 Br
   0.7500000000000000    0.2499999999999999    0.4321948974862223 Br
   0.0000000000000000    0.0000000000000000    0.4575648804005927 Br
   0.5000000000000000    0.5000000000000000    0.4575648804005927 Br
   0.1658916280878519    0.1509799820230606    0.5242118007222101 Br
   0.3340916280878519    0.6509799820230606    0.5242118007222101 Br
   0.6658916280878520    0.6231799820230606    0.5504890577543052 Br
   0.8340916280878519    0.1231799820230606    0.5504890577543052 Br
   0.6658916280878520    0.6231799820230606    0.5863623613468435 Br
   0.8340916280878519    0.1231799820230606    0.5863623613468435 Br
   0.1658916280878519    0.1509799820230606    0.6126396183789389 Br
   0.3340916280878519    0.6509799820230606    0.6126396183789389 Br
   0.1658916280878519    0.1509799820230606    0.6485129219714775 Br
   0.3340916280878519    0.6509799820230606    0.6485129219714775 Br
   0.6658916280878520    0.6231799820230606    0.6747901790035724 Br
   0.8340916280878519    0.1231799820230606    0.6747901790035724 Br
   0.6658916280878520    0.6231799820230606    0.7106634825961111 Br
   0.8340916280878519    0.1231799820230606    0.7106634825961111 Br
   0.1658916280878519    0.1509799820230606    0.7369407396282061 Br
   0.3340916280878519    0.6509799820230606    0.7369407396282061 Br
