ALGO = All
ENCUT = 400
GGA = Pe
ICHARG = 11
ISMEAR = 0
ISPIN = 2
KPAR = 16
LCHARG = False
LDAU = True
LDAUJ = 0.0 0
LDAUL = 2 -1
LDAUU = 6.875687568756877 0
LMAXMIX = 4
LORBIT = 11
LSORBIT = True
LWAVE = False
MAGMOM = 0.0 0.0 0.5 0.0 0.0 0.0
NCORE = 1
NPAR = 4
PREC = N
SIGMA = 0.02
