Co  O 
 1.0000000000000000
     0.0000000000000000    2.1285500000000002    2.1285500000000002
     2.1285500000000002    0.0000000000000000    2.1285500000000002
     2.1285500000000002    2.1285500000000002    0.0000000000000000
 Co  O  
   1   1
Direct
  0.0000000000000000  0.0000000000000000  0.0000000000000000
  0.5000000000000000  0.5000000000000000  0.5000000000000000
