L=2,4|T=6,0|O=1|d=2.644|a=0.6046|b=0.3985
1.0
   8.1761550739920139    0.0000000000000000    0.0000000000000000
   0.0000000000000000    8.2176550739920131    0.0000000000000000
   0.0000000000000000    0.0000000000000000  110.9372000000000043
Cs Pb S Br
8 40 24 40
direct
   0.5000000000000000    0.0000000000000000    0.2711230000000000 Cs
   0.0000000000000000    0.5000000000000000    0.2711230000000000 Cs
   0.5000000000000000    0.0000000000000000    0.3245334903460430 Cs
   0.0000000000000000    0.5000000000000000    0.3245334903460430 Cs
   0.5000000000000000    0.0000000000000000    0.3779439806920858 Cs
   0.0000000000000000    0.5000000000000000    0.3779439806920858 Cs
   0.5000000000000000    0.0000000000000000    0.4313544710381288 Cs
   0.0000000000000000    0.5000000000000000    0.4313544710381288 Cs
   0.0000000000000000    0.0000000000000000    0.2978282451730215 Pb
   0.5000000000000000    0.5000000000000000    0.2978282451730215 Pb
   0.0000000000000000    0.0000000000000000    0.3512387355190644 Pb
   0.5000000000000000    0.5000000000000000    0.3512387355190644 Pb
   0.0000000000000000    0.0000000000000000    0.4046492258651073 Pb
   0.5000000000000000    0.5000000000000000    0.4046492258651073 Pb
   0.0000000000000000    0.0000000000000000    0.4580597162111503 Pb
   0.5000000000000000    0.5000000000000000    0.4580597162111503 Pb
   0.9667950484002152    0.5926582185333190    0.4818906260996731 Pb
   0.4105950484002152    0.0926582185333191    0.4818906260996731 Pb
   0.9105950484002152    0.1764582185333190    0.4917562098282992 Pb
   0.4667950484002152    0.6764582185333190    0.4917562098282992 Pb
   0.6416950484002153    0.3142582185333189    0.5195342393453724 Pb
   0.7356950484002153    0.8142582185333190    0.5195342393453724 Pb
   0.0884950484002154    0.5199582185333190    0.5195342393453724 Pb
   0.2888950484002153    0.0199582185333194    0.5195342393453724 Pb
   0.9105950484002152    0.1764582185333190    0.5473122688624454 Pb
   0.4667950484002152    0.6764582185333190    0.5473122688624454 Pb
   0.9667950484002152    0.5926582185333190    0.5571778525910714 Pb
   0.4105950484002152    0.0926582185333191    0.5571778525910714 Pb
   0.7888950484002153    0.2491582185333190    0.5849558821081446 Pb
   0.1416950484002153    0.9548582185333196    0.5849558821081446 Pb
   0.2356950484002156    0.4548582185333190    0.5849558821081446 Pb
   0.5884950484002154    0.7491582185333190    0.5849558821081446 Pb
   0.9667950484002152    0.5926582185333190    0.6127339116252176 Pb
   0.4105950484002152    0.0926582185333191    0.6127339116252176 Pb
   0.9105950484002152    0.1764582185333190    0.6225994953538438 Pb
   0.4667950484002152    0.6764582185333190    0.6225994953538438 Pb
   0.6416950484002153    0.3142582185333189    0.6503775248709167 Pb
   0.7356950484002153    0.8142582185333190    0.6503775248709167 Pb
   0.0884950484002154    0.5199582185333190    0.6503775248709167 Pb
   0.2888950484002153    0.0199582185333194    0.6503775248709167 Pb
   0.9105950484002152    0.1764582185333190    0.6781555543879900 Pb
   0.4667950484002152    0.6764582185333190    0.6781555543879900 Pb
   0.9667950484002152    0.5926582185333190    0.6880211381166159 Pb
   0.4105950484002152    0.0926582185333191    0.6880211381166159 Pb
   0.7888950484002153    0.2491582185333190    0.7157991676336890 Pb
   0.1416950484002153    0.9548582185333196    0.7157991676336890 Pb
   0.2356950484002156    0.4548582185333190    0.7157991676336890 Pb
   0.5884950484002154    0.7491582185333190    0.7157991676336890 Pb
   0.8416950484002153    0.5655582185333190    0.5040947316533581 S
   0.5356950484002159    0.0655582185333190    0.5040947316533581 S
   0.9296950484002154    0.1715582185333194    0.5195342393453724 S
   0.4476950484002153    0.6715582185333191    0.5195342393453724 S
   0.8416950484002153    0.5655582185333190    0.5349737470373865 S
   0.5356950484002159    0.0655582185333190    0.5349737470373865 S
   0.0356950484002152    0.2035582185333192    0.5695163744161302 S
   0.3416950484002153    0.7035582185333192    0.5695163744161302 S
   0.9476950484002153    0.5975582185333190    0.5849558821081446 S
   0.4296950484002156    0.0975582185333190    0.5849558821081446 S
   0.0356950484002152    0.2035582185333192    0.6003953898001588 S
   0.3416950484002153    0.7035582185333192    0.6003953898001588 S
   0.8416950484002153    0.5655582185333190    0.6349380171789025 S
   0.5356950484002159    0.0655582185333190    0.6349380171789025 S
   0.9296950484002154    0.1715582185333194    0.6503775248709167 S
   0.4476950484002153    0.6715582185333191    0.6503775248709167 S
   0.8416950484002153    0.5655582185333190    0.6658170325629310 S
   0.5356950484002159    0.0655582185333190    0.6658170325629310 S
   0.0356950484002152    0.2035582185333192    0.7003596599416747 S
   0.3416950484002153    0.7035582185333192    0.7003596599416747 S
   0.9476950484002153    0.5975582185333190    0.7157991676336890 S
   0.4296950484002156    0.0975582185333190    0.7157991676336890 S
   0.0356950484002152    0.2035582185333192    0.7312386753257032 S
   0.3416950484002153    0.7035582185333192    0.7312386753257032 S
   0.0000000000000000    0.0000000000000000    0.2711230000000000 Br
   0.5000000000000000    0.5000000000000000    0.2711230000000000 Br
   0.2500000000000000    0.2500000000000000    0.2978282451730215 Br
   0.7500000000000000    0.7500000000000000    0.2978282451730215 Br
   0.2499999999999999    0.7500000000000000    0.2978282451730215 Br
   0.7500000000000000    0.2499999999999999    0.2978282451730215 Br
   0.0000000000000000    0.0000000000000000    0.3245334903460430 Br
   0.5000000000000000    0.5000000000000000    0.3245334903460430 Br
   0.2500000000000000    0.2500000000000000    0.3512387355190644 Br
   0.7500000000000000    0.7500000000000000    0.3512387355190644 Br
   0.2499999999999999    0.7500000000000000    0.3512387355190644 Br
   0.7500000000000000    0.2499999999999999    0.3512387355190644 Br
   0.0000000000000000    0.0000000000000000    0.3779439806920858 Br
   0.5000000000000000    0.5000000000000000    0.3779439806920858 Br
   0.2500000000000000    0.2500000000000000    0.4046492258651073 Br
   0.7500000000000000    0.7500000000000000    0.4046492258651073 Br
   0.2499999999999999    0.7500000000000000    0.4046492258651073 Br
   0.7500000000000000    0.2499999999999999    0.4046492258651073 Br
   0.0000000000000000    0.0000000000000000    0.4313544710381288 Br
   0.5000000000000000    0.5000000000000000    0.4313544710381288 Br
   0.2500000000000000    0.2500000000000000    0.4580597162111503 Br
   0.7500000000000000    0.7500000000000000    0.4580597162111503 Br
   0.2499999999999999    0.7500000000000000    0.4580597162111503 Br
   0.7500000000000000    0.2499999999999999    0.4580597162111503 Br
   0.1045950484002152    0.8706582185333190    0.5006535532440363 Br
   0.2727950484002153    0.3706582185333189    0.5006535532440363 Br
   0.1045950484002152    0.8706582185333190    0.5384149254467083 Br
   0.2727950484002153    0.3706582185333189    0.5384149254467083 Br
   0.6045950484002153    0.3984582185333190    0.5660751960068084 Br
   0.7727950484002153    0.8984582185333192    0.5660751960068084 Br
   0.6045950484002153    0.3984582185333190    0.6038365682094806 Br
   0.7727950484002153    0.8984582185333192    0.6038365682094806 Br
   0.1045950484002152    0.8706582185333190    0.6314968387695807 Br
   0.2727950484002153    0.3706582185333189    0.6314968387695807 Br
   0.1045950484002152    0.8706582185333190    0.6692582109722529 Br
   0.2727950484002153    0.3706582185333189    0.6692582109722529 Br
   0.6045950484002153    0.3984582185333190    0.6969184815323530 Br
   0.7727950484002153    0.8984582185333192    0.6969184815323530 Br
   0.6045950484002153    0.3984582185333190    0.7346798537350252 Br
   0.7727950484002153    0.8984582185333192    0.7346798537350252 Br
