Pb6 Br4
1.0
   8.1761550739920139    0.0000000000000000    0.0000000000000000
   0.0000000000000000    8.2176550739920131    0.0000000000000000
   0.0000000000000000    0.0000000000000000  110.9372000000000043
Pb Br
6 4
direct
   0.0000000000000000    0.0000000000000000    0.4580597162111503 Pb
   0.5000000000000000    0.5000000000000000    0.4580597162111503 Pb
   0.9667950484002152    0.5926582185333190    0.4818906260996731 Pb
   0.4105950484002152    0.0926582185333191    0.4818906260996731 Pb
   0.9105950484002152    0.1764582185333190    0.4917562098282992 Pb
   0.4667950484002152    0.6764582185333190    0.4917562098282992 Pb
   0.2500000000000000    0.2500000000000000    0.4580597162111503 Br
   0.7500000000000000    0.7500000000000000    0.4580597162111503 Br
   0.2499999999999999    0.7500000000000000    0.4580597162111503 Br
   0.7500000000000000    0.2499999999999999    0.4580597162111503 Br
