L=2|T=6|O=True
1.0
   8.0950000000000006    0.0000000000000000    0.0000000000000000
   0.0000000000000000    8.1780000000000008    0.0000000000000000
   0.0000000000000000    0.0000000000000000   58.9279999999999973
Pb S Br
32 24 16
direct
   0.3622000000000000    0.1942000000000000    0.2585000000000000 Pb
   0.8060000000000000    0.6942000000000000    0.2585000000000000 Pb
   0.3060000000000000    0.7780000000000000    0.2773500000000000 Pb
   0.8622000000000000    0.2780000000000000    0.2773500000000000 Pb
   0.0371000000000000    0.9157999999999999    0.3304250000000000 Pb
   0.1311000000000000    0.4158000000000000    0.3304250000000000 Pb
   0.4839000000000000    0.1215000000000000    0.3304250000000000 Pb
   0.6843000000000000    0.6215000000000001    0.3304250000000000 Pb
   0.3060000000000000    0.7780000000000000    0.3835000000000000 Pb
   0.8622000000000000    0.2780000000000000    0.3835000000000000 Pb
   0.3622000000000000    0.1942000000000000    0.4023500000000000 Pb
   0.8060000000000000    0.6942000000000000    0.4023500000000000 Pb
   0.1843000000000000    0.8507000000000000    0.4554250000000000 Pb
   0.5371000000000000    0.5564000000000000    0.4554250000000000 Pb
   0.6311000000000000    0.0564000000000000    0.4554250000000000 Pb
   0.9839000000000000    0.3507000000000000    0.4554250000000000 Pb
   0.3622000000000000    0.1942000000000000    0.5085000000000000 Pb
   0.8060000000000000    0.6942000000000000    0.5085000000000000 Pb
   0.3060000000000000    0.7780000000000000    0.5273500000000000 Pb
   0.8622000000000000    0.2780000000000000    0.5273500000000000 Pb
   0.0371000000000000    0.9157999999999999    0.5804250000000000 Pb
   0.1311000000000000    0.4158000000000000    0.5804250000000000 Pb
   0.4839000000000000    0.1215000000000000    0.5804250000000000 Pb
   0.6843000000000000    0.6215000000000001    0.5804250000000000 Pb
   0.3060000000000000    0.7780000000000000    0.6335000000000000 Pb
   0.8622000000000000    0.2780000000000000    0.6335000000000000 Pb
   0.3622000000000000    0.1942000000000000    0.6523500000000000 Pb
   0.8060000000000000    0.6942000000000000    0.6523500000000000 Pb
   0.1843000000000000    0.8507000000000000    0.7054250000000000 Pb
   0.5371000000000000    0.5564000000000000    0.7054250000000000 Pb
   0.6311000000000000    0.0564000000000000    0.7054250000000000 Pb
   0.9839000000000000    0.3507000000000000    0.7054250000000000 Pb
   0.2371000000000000    0.1671000000000000    0.3009250000000000 S
   0.9311000000000000    0.6671000000000000    0.3009250000000000 S
   0.3251000000000000    0.7731000000000000    0.3304250000000000 S
   0.8431000000000000    0.2731000000000000    0.3304250000000000 S
   0.2371000000000000    0.1671000000000000    0.3599250000000000 S
   0.9311000000000000    0.6671000000000000    0.3599250000000000 S
   0.4311000000000000    0.8051000000000000    0.4259250000000000 S
   0.7371000000000000    0.3051000000000000    0.4259250000000000 S
   0.3431000000000000    0.1991000000000000    0.4554250000000000 S
   0.8250999999999999    0.6991000000000001    0.4554250000000000 S
   0.4311000000000000    0.8051000000000000    0.4849250000000000 S
   0.7371000000000000    0.3051000000000000    0.4849250000000000 S
   0.2371000000000000    0.1671000000000000    0.5509250000000000 S
   0.9311000000000000    0.6671000000000000    0.5509250000000000 S
   0.3251000000000000    0.7731000000000000    0.5804250000000000 S
   0.8431000000000000    0.2731000000000000    0.5804250000000000 S
   0.2371000000000000    0.1671000000000000    0.6099250000000001 S
   0.9311000000000000    0.6671000000000000    0.6099250000000001 S
   0.4311000000000000    0.8051000000000000    0.6759250000000000 S
   0.7371000000000000    0.3051000000000000    0.6759250000000000 S
   0.3431000000000000    0.1991000000000000    0.7054250000000000 S
   0.8250999999999999    0.6991000000000001    0.7054250000000000 S
   0.4311000000000000    0.8051000000000000    0.7349250000000001 S
   0.7371000000000000    0.3051000000000000    0.7349250000000001 S
   0.5000000000000000    0.4722000000000000    0.2943500000000000 Br
   0.6682000000000000    0.9722000000000000    0.2943500000000000 Br
   0.5000000000000000    0.4722000000000000    0.3665000000000000 Br
   0.6682000000000000    0.9722000000000000    0.3665000000000000 Br
   0.0000000000000000    0.0000000000000000    0.4193500000000000 Br
   0.1682000000000000    0.5000000000000000    0.4193500000000000 Br
   0.0000000000000000    0.0000000000000000    0.4915000000000000 Br
   0.1682000000000000    0.5000000000000000    0.4915000000000000 Br
   0.5000000000000000    0.4722000000000000    0.5443500000000000 Br
   0.6682000000000000    0.9722000000000000    0.5443500000000000 Br
   0.5000000000000000    0.4722000000000000    0.6165000000000000 Br
   0.6682000000000000    0.9722000000000000    0.6165000000000000 Br
   0.0000000000000000    0.0000000000000000    0.6693500000000000 Br
   0.1682000000000000    0.5000000000000000    0.6693500000000000 Br
   0.0000000000000000    0.0000000000000000    0.7415000000000000 Br
   0.1682000000000000    0.5000000000000000    0.7415000000000000 Br
