Cs2 Pb4 Br2
1.0
   8.1761550739920139    0.0000000000000000    0.0000000000000000
   0.0000000000000000    8.2176550739920131    0.0000000000000000
   0.0000000000000000    0.0000000000000000  110.9372000000000043
Cs Pb Br
2 4 2
direct
   0.5000000000000000    0.0000000000000000    0.4580597162111503 Cs
   0.0000000000000000    0.5000000000000000    0.4580597162111503 Cs
   0.0274663032650204    0.0726587933339507    0.4863858587964474 Pb
   0.4712663032650204    0.5726587933339508    0.4863858587964474 Pb
   0.9712663032650204    0.6564587933339507    0.4962514425250735 Pb
   0.5274663032650202    0.1564587933339507    0.4962514425250735 Pb
   0.0000000000000000    0.0000000000000000    0.4580597162111503 Br
   0.5000000000000000    0.5000000000000000    0.4580597162111503 Br
