L=2,4|T=6,1|O=1|d=3.142|a=0.6653|b=-0.1215
1.0
   8.1761550739920139    0.0000000000000000    0.0000000000000000
   0.0000000000000000    8.2176550739920131    0.0000000000000000
   0.0000000000000000    0.0000000000000000  110.9372000000000043
Cs Pb S Br
8 40 24 40
direct
   0.5000000000000000    0.0000000000000000    0.2978282451730215 Cs
   0.0000000000000000    0.5000000000000000    0.2978282451730215 Cs
   0.5000000000000000    0.0000000000000000    0.3512387355190644 Cs
   0.0000000000000000    0.5000000000000000    0.3512387355190644 Cs
   0.5000000000000000    0.0000000000000000    0.4046492258651073 Cs
   0.0000000000000000    0.5000000000000000    0.4046492258651073 Cs
   0.5000000000000000    0.0000000000000000    0.4580597162111503 Cs
   0.0000000000000000    0.5000000000000000    0.4580597162111503 Cs
   0.0000000000000000    0.0000000000000000    0.2711230000000000 Pb
   0.5000000000000000    0.5000000000000000    0.2711230000000000 Pb
   0.0000000000000000    0.0000000000000000    0.3245334903460430 Pb
   0.5000000000000000    0.5000000000000000    0.3245334903460430 Pb
   0.0000000000000000    0.0000000000000000    0.3779439806920858 Pb
   0.5000000000000000    0.5000000000000000    0.3779439806920858 Pb
   0.0000000000000000    0.0000000000000000    0.4313544710381288 Pb
   0.5000000000000000    0.5000000000000000    0.4313544710381288 Pb
   0.0274663032650204    0.0726587933339507    0.4863858587964474 Pb
   0.4712663032650204    0.5726587933339508    0.4863858587964474 Pb
   0.9712663032650204    0.6564587933339507    0.4962514425250735 Pb
   0.5274663032650202    0.1564587933339507    0.4962514425250735 Pb
   0.7023663032650204    0.7942587933339509    0.5240294720421467 Pb
   0.7963663032650203    0.2942587933339507    0.5240294720421467 Pb
   0.1491663032650203    0.9999587933339507    0.5240294720421467 Pb
   0.3495663032650205    0.4999587933339511    0.5240294720421467 Pb
   0.9712663032650204    0.6564587933339507    0.5518075015592198 Pb
   0.5274663032650202    0.1564587933339507    0.5518075015592198 Pb
   0.0274663032650204    0.0726587933339507    0.5616730852878458 Pb
   0.4712663032650204    0.5726587933339508    0.5616730852878458 Pb
   0.8495663032650206    0.7291587933339507    0.5894511148049190 Pb
   0.2023663032650203    0.4348587933339511    0.5894511148049190 Pb
   0.2963663032650208    0.9348587933339507    0.5894511148049190 Pb
   0.6491663032650203    0.2291587933339507    0.5894511148049190 Pb
   0.0274663032650204    0.0726587933339507    0.6172291443219919 Pb
   0.4712663032650204    0.5726587933339508    0.6172291443219919 Pb
   0.9712663032650204    0.6564587933339507    0.6270947280506181 Pb
   0.5274663032650202    0.1564587933339507    0.6270947280506181 Pb
   0.7023663032650204    0.7942587933339509    0.6548727575676910 Pb
   0.7963663032650203    0.2942587933339507    0.6548727575676910 Pb
   0.1491663032650203    0.9999587933339507    0.6548727575676910 Pb
   0.3495663032650205    0.4999587933339511    0.6548727575676910 Pb
   0.9712663032650204    0.6564587933339507    0.6826507870847643 Pb
   0.5274663032650202    0.1564587933339507    0.6826507870847643 Pb
   0.0274663032650204    0.0726587933339507    0.6925163708133900 Pb
   0.4712663032650204    0.5726587933339508    0.6925163708133900 Pb
   0.8495663032650206    0.7291587933339507    0.7202944003304633 Pb
   0.2023663032650203    0.4348587933339511    0.7202944003304633 Pb
   0.2963663032650208    0.9348587933339507    0.7202944003304633 Pb
   0.6491663032650203    0.2291587933339507    0.7202944003304633 Pb
   0.9023663032650204    0.0455587933339507    0.5085899643501324 S
   0.5963663032650208    0.5455587933339507    0.5085899643501324 S
   0.9903663032650205    0.6515587933339511    0.5240294720421467 S
   0.5083663032650203    0.1515587933339507    0.5240294720421467 S
   0.9023663032650204    0.0455587933339507    0.5394689797341609 S
   0.5963663032650208    0.5455587933339507    0.5394689797341609 S
   0.0963663032650204    0.6835587933339508    0.5740116071129047 S
   0.4023663032650204    0.1835587933339507    0.5740116071129047 S
   0.0083663032650203    0.0775587933339507    0.5894511148049190 S
   0.4903663032650208    0.5775587933339508    0.5894511148049190 S
   0.0963663032650204    0.6835587933339508    0.6048906224969332 S
   0.4023663032650204    0.1835587933339507    0.6048906224969332 S
   0.9023663032650204    0.0455587933339507    0.6394332498756766 S
   0.5963663032650208    0.5455587933339507    0.6394332498756766 S
   0.9903663032650205    0.6515587933339511    0.6548727575676910 S
   0.5083663032650203    0.1515587933339507    0.6548727575676910 S
   0.9023663032650204    0.0455587933339507    0.6703122652597053 S
   0.5963663032650208    0.5455587933339507    0.6703122652597053 S
   0.0963663032650204    0.6835587933339508    0.7048548926384491 S
   0.4023663032650204    0.1835587933339507    0.7048548926384491 S
   0.0083663032650203    0.0775587933339507    0.7202944003304633 S
   0.4903663032650208    0.5775587933339508    0.7202944003304633 S
   0.0963663032650204    0.6835587933339508    0.7357339080224774 S
   0.4023663032650204    0.1835587933339507    0.7357339080224774 S
   0.2500000000000000    0.2500000000000000    0.2711230000000000 Br
   0.7500000000000000    0.7500000000000000    0.2711230000000000 Br
   0.2499999999999999    0.7500000000000000    0.2711230000000000 Br
   0.7500000000000000    0.2499999999999999    0.2711230000000000 Br
   0.0000000000000000    0.0000000000000000    0.2978282451730215 Br
   0.5000000000000000    0.5000000000000000    0.2978282451730215 Br
   0.2500000000000000    0.2500000000000000    0.3245334903460430 Br
   0.7500000000000000    0.7500000000000000    0.3245334903460430 Br
   0.2499999999999999    0.7500000000000000    0.3245334903460430 Br
   0.7500000000000000    0.2499999999999999    0.3245334903460430 Br
   0.0000000000000000    0.0000000000000000    0.3512387355190644 Br
   0.5000000000000000    0.5000000000000000    0.3512387355190644 Br
   0.2500000000000000    0.2500000000000000    0.3779439806920858 Br
   0.7500000000000000    0.7500000000000000    0.3779439806920858 Br
   0.2499999999999999    0.7500000000000000    0.3779439806920858 Br
   0.7500000000000000    0.2499999999999999    0.3779439806920858 Br
   0.0000000000000000    0.0000000000000000    0.4046492258651073 Br
   0.5000000000000000    0.5000000000000000    0.4046492258651073 Br
   0.2500000000000000    0.2500000000000000    0.4313544710381288 Br
   0.7500000000000000    0.7500000000000000    0.4313544710381288 Br
   0.2499999999999999    0.7500000000000000    0.4313544710381288 Br
   0.7500000000000000    0.2499999999999999    0.4313544710381288 Br
   0.0000000000000000    0.0000000000000000    0.4580597162111503 Br
   0.5000000000000000    0.5000000000000000    0.4580597162111503 Br
   0.1652663032650203    0.3506587933339507    0.5051487859408106 Br
   0.3334663032650202    0.8506587933339507    0.5051487859408106 Br
   0.1652663032650203    0.3506587933339507    0.5429101581434826 Br
   0.3334663032650202    0.8506587933339507    0.5429101581434826 Br
   0.6652663032650203    0.8784587933339507    0.5705704287035828 Br
   0.8334663032650204    0.3784587933339507    0.5705704287035828 Br
   0.6652663032650203    0.8784587933339507    0.6083318009062549 Br
   0.8334663032650204    0.3784587933339507    0.6083318009062549 Br
   0.1652663032650203    0.3506587933339507    0.6359920714663551 Br
   0.3334663032650202    0.8506587933339507    0.6359920714663551 Br
   0.1652663032650203    0.3506587933339507    0.6737534436690272 Br
   0.3334663032650202    0.8506587933339507    0.6737534436690272 Br
   0.6652663032650203    0.8784587933339507    0.7014137142291273 Br
   0.8334663032650204    0.3784587933339507    0.7014137142291273 Br
   0.6652663032650203    0.8784587933339507    0.7391750864317995 Br
   0.8334663032650204    0.3784587933339507    0.7391750864317995 Br
