L=2|T=4|O=True
1.0
   8.0950000000000006    0.0000000000000000    0.0000000000000000
   0.0000000000000000    8.1780000000000008    0.0000000000000000
   0.0000000000000000    0.0000000000000000   58.9279999999999973
Pb S Br
32 24 16
direct
   0.1779000000000000    0.3435000000000000    0.2883250000000000 Pb
   0.6217000000000000    0.8435000000000000    0.2883250000000000 Pb
   0.1217000000000000    0.9273000000000000    0.3071750000000000 Pb
   0.6778999999999999    0.4273000000000000    0.3071750000000000 Pb
   0.2996000000000000    0.2708000000000000    0.3602500000000000 Pb
   0.5000000000000000    0.7708000000000000    0.3602500000000000 Pb
   0.8528000000000000    0.0651000000000000    0.3602500000000000 Pb
   0.9468000000000000    0.5651000000000000    0.3602500000000000 Pb
   0.1217000000000000    0.9273000000000000    0.4133250000000000 Pb
   0.6778999999999999    0.4273000000000000    0.4133250000000000 Pb
   0.1779000000000000    0.3435000000000000    0.4321750000000000 Pb
   0.6217000000000000    0.8435000000000000    0.4321750000000000 Pb
   0.0000000000000000    0.0000000000000000    0.4852500000000000 Pb
   0.3528000000000000    0.7057000000000000    0.4852500000000000 Pb
   0.4468000000000000    0.2057000000000000    0.4852500000000000 Pb
   0.7996000000000000    0.5000000000000000    0.4852500000000000 Pb
   0.1779000000000000    0.3435000000000000    0.5383250000000001 Pb
   0.6217000000000000    0.8435000000000000    0.5383250000000001 Pb
   0.1217000000000000    0.9273000000000000    0.5571750000000000 Pb
   0.6778999999999999    0.4273000000000000    0.5571750000000000 Pb
   0.2996000000000000    0.2708000000000000    0.6102500000000000 Pb
   0.5000000000000000    0.7708000000000000    0.6102500000000000 Pb
   0.8528000000000000    0.0651000000000000    0.6102500000000000 Pb
   0.9468000000000000    0.5651000000000000    0.6102500000000000 Pb
   0.1217000000000000    0.9273000000000000    0.6633250000000001 Pb
   0.6778999999999999    0.4273000000000000    0.6633250000000001 Pb
   0.1779000000000000    0.3435000000000000    0.6821750000000000 Pb
   0.6217000000000000    0.8435000000000000    0.6821750000000000 Pb
   0.0000000000000000    0.0000000000000000    0.7352500000000000 Pb
   0.3528000000000000    0.7057000000000000    0.7352500000000000 Pb
   0.4468000000000000    0.2057000000000000    0.7352500000000000 Pb
   0.7996000000000000    0.5000000000000000    0.7352500000000000 Pb
   0.2468000000000000    0.9544000000000000    0.2647500000000000 S
   0.5528000000000000    0.4544000000000000    0.2647500000000000 S
   0.0528000000000000    0.3164000000000000    0.3307500000000000 S
   0.7468000000000000    0.8164000000000000    0.3307500000000000 S
   0.1408000000000000    0.9224000000000000    0.3602500000000000 S
   0.6588000000000001    0.4224000000000000    0.3602500000000000 S
   0.0528000000000000    0.3164000000000000    0.3897500000000000 S
   0.7468000000000000    0.8164000000000000    0.3897500000000000 S
   0.2468000000000000    0.9544000000000000    0.4557500000000000 S
   0.5528000000000000    0.4544000000000000    0.4557500000000000 S
   0.1588000000000000    0.3484000000000000    0.4852500000000000 S
   0.6408000000000000    0.8484000000000000    0.4852500000000000 S
   0.2468000000000000    0.9544000000000000    0.5147500000000000 S
   0.5528000000000000    0.4544000000000000    0.5147500000000000 S
   0.0528000000000000    0.3164000000000000    0.5807500000000000 S
   0.7468000000000000    0.8164000000000000    0.5807500000000000 S
   0.1408000000000000    0.9224000000000000    0.6102500000000000 S
   0.6588000000000001    0.4224000000000000    0.6102500000000000 S
   0.0528000000000000    0.3164000000000000    0.6397500000000000 S
   0.7468000000000000    0.8164000000000000    0.6397500000000000 S
   0.2468000000000000    0.9544000000000000    0.7057500000000000 S
   0.5528000000000000    0.4544000000000000    0.7057500000000000 S
   0.1588000000000000    0.3484000000000000    0.7352500000000000 S
   0.6408000000000000    0.8484000000000000    0.7352500000000000 S
   0.8157000000000000    0.1493000000000000    0.2713250000000000 Br
   0.9839000000000000    0.6493000000000000    0.2713250000000000 Br
   0.3157000000000000    0.6215000000000001    0.3241750000000000 Br
   0.4839000000000000    0.1215000000000000    0.3241750000000000 Br
   0.3157000000000000    0.6215000000000001    0.3963250000000000 Br
   0.4839000000000000    0.1215000000000000    0.3963250000000000 Br
   0.8157000000000000    0.1493000000000000    0.4491750000000000 Br
   0.9839000000000000    0.6493000000000000    0.4491750000000000 Br
   0.8157000000000000    0.1493000000000000    0.5213250000000000 Br
   0.9839000000000000    0.6493000000000000    0.5213250000000000 Br
   0.3157000000000000    0.6215000000000001    0.5741750000000000 Br
   0.4839000000000000    0.1215000000000000    0.5741750000000000 Br
   0.3157000000000000    0.6215000000000001    0.6463250000000000 Br
   0.4839000000000000    0.1215000000000000    0.6463250000000000 Br
   0.8157000000000000    0.1493000000000000    0.6991750000000000 Br
   0.9839000000000000    0.6493000000000000    0.6991750000000000 Br
