L=2,4|T=4,0|O=1|d=3.237|a=0.8493|b=0.0573
1.0
   8.1761550739920139    0.0000000000000000    0.0000000000000000
   0.0000000000000000    8.2176550739920131    0.0000000000000000
   0.0000000000000000    0.0000000000000000  110.9372000000000043
Cs Pb S Br
8 40 24 40
direct
   0.5000000000000000    0.0000000000000000    0.2743940000000000 Cs
   0.0000000000000000    0.5000000000000000    0.2743940000000000 Cs
   0.5000000000000000    0.0000000000000000    0.3278044903460429 Cs
   0.0000000000000000    0.5000000000000000    0.3278044903460429 Cs
   0.5000000000000000    0.0000000000000000    0.3812149806920858 Cs
   0.0000000000000000    0.5000000000000000    0.3812149806920858 Cs
   0.5000000000000000    0.0000000000000000    0.4346254710381288 Cs
   0.0000000000000000    0.5000000000000000    0.4346254710381288 Cs
   0.0000000000000000    0.0000000000000000    0.3010992451730214 Pb
   0.5000000000000000    0.5000000000000000    0.3010992451730214 Pb
   0.0000000000000000    0.0000000000000000    0.3545097355190643 Pb
   0.5000000000000000    0.5000000000000000    0.3545097355190643 Pb
   0.0000000000000000    0.0000000000000000    0.4079202258651072 Pb
   0.5000000000000000    0.5000000000000000    0.4079202258651072 Pb
   0.0000000000000000    0.0000000000000000    0.4613307162111503 Pb
   0.5000000000000000    0.5000000000000000    0.4613307162111503 Pb
   0.0272396722929289    0.4008333412579438    0.5028485425881395 Pb
   0.4710396722929289    0.9008333412579438    0.5028485425881395 Pb
   0.9710396722929289    0.9846333412579438    0.5127141263167656 Pb
   0.5272396722929287    0.4846333412579440    0.5127141263167656 Pb
   0.1489396722929288    0.3281333412579439    0.5404921558338389 Pb
   0.3493396722929289    0.8281333412579440    0.5404921558338389 Pb
   0.7021396722929287    0.1224333412579437    0.5404921558338389 Pb
   0.7961396722929290    0.6224333412579438    0.5404921558338389 Pb
   0.9710396722929289    0.9846333412579438    0.5682701853509117 Pb
   0.5272396722929287    0.4846333412579440    0.5682701853509117 Pb
   0.0272396722929289    0.4008333412579438    0.5781357690795378 Pb
   0.4710396722929289    0.9008333412579438    0.5781357690795378 Pb
   0.8493396722929289    0.0573333412579437    0.6059137985966108 Pb
   0.2021396722929290    0.7630333412579444    0.6059137985966108 Pb
   0.2961396722929288    0.2630333412579438    0.6059137985966108 Pb
   0.6489396722929288    0.5573333412579438    0.6059137985966108 Pb
   0.0272396722929289    0.4008333412579438    0.6336918281136841 Pb
   0.4710396722929289    0.9008333412579438    0.6336918281136841 Pb
   0.9710396722929289    0.9846333412579438    0.6435574118423101 Pb
   0.5272396722929287    0.4846333412579440    0.6435574118423101 Pb
   0.1489396722929288    0.3281333412579439    0.6713354413593833 Pb
   0.3493396722929289    0.8281333412579440    0.6713354413593833 Pb
   0.7021396722929287    0.1224333412579437    0.6713354413593833 Pb
   0.7961396722929290    0.6224333412579438    0.6713354413593833 Pb
   0.9710396722929289    0.9846333412579438    0.6991134708764563 Pb
   0.5272396722929287    0.4846333412579440    0.6991134708764563 Pb
   0.0272396722929289    0.4008333412579438    0.7089790546050821 Pb
   0.4710396722929289    0.9008333412579438    0.7089790546050821 Pb
   0.8493396722929289    0.0573333412579437    0.7367570841221555 Pb
   0.2021396722929290    0.7630333412579444    0.7367570841221555 Pb
   0.2961396722929288    0.2630333412579438    0.7367570841221555 Pb
   0.6489396722929288    0.5573333412579438    0.7367570841221555 Pb
   0.0961396722929289    0.0117333412579441    0.4905100207630808 S
   0.4021396722929289    0.5117333412579439    0.4905100207630808 S
   0.9021396722929289    0.3737333412579437    0.5250526481418244 S
   0.5961396722929289    0.8737333412579438    0.5250526481418244 S
   0.9901396722929290    0.9797333412579438    0.5404921558338389 S
   0.5081396722929288    0.4797333412579438    0.5404921558338389 S
   0.9021396722929289    0.3737333412579437    0.5559316635258530 S
   0.5961396722929289    0.8737333412579438    0.5559316635258530 S
   0.0961396722929289    0.0117333412579441    0.5904742909045967 S
   0.4021396722929289    0.5117333412579439    0.5904742909045967 S
   0.0081396722929288    0.4057333412579438    0.6059137985966108 S
   0.4901396722929290    0.9057333412579438    0.6059137985966108 S
   0.0961396722929289    0.0117333412579441    0.6213533062886253 S
   0.4021396722929289    0.5117333412579439    0.6213533062886253 S
   0.9021396722929289    0.3737333412579437    0.6558959336673689 S
   0.5961396722929289    0.8737333412579438    0.6558959336673689 S
   0.9901396722929290    0.9797333412579438    0.6713354413593833 S
   0.5081396722929288    0.4797333412579438    0.6713354413593833 S
   0.9021396722929289    0.3737333412579437    0.6867749490513974 S
   0.5961396722929289    0.8737333412579438    0.6867749490513974 S
   0.0961396722929289    0.0117333412579441    0.7213175764301409 S
   0.4021396722929289    0.5117333412579439    0.7213175764301409 S
   0.0081396722929288    0.4057333412579438    0.7367570841221555 S
   0.4901396722929290    0.9057333412579438    0.7367570841221555 S
   0.0000000000000000    0.0000000000000000    0.2743940000000000 Br
   0.5000000000000000    0.5000000000000000    0.2743940000000000 Br
   0.2500000000000000    0.2500000000000000    0.3010992451730214 Br
   0.7500000000000000    0.7500000000000000    0.3010992451730214 Br
   0.2499999999999999    0.7500000000000000    0.3010992451730214 Br
   0.7500000000000000    0.2499999999999999    0.3010992451730214 Br
   0.0000000000000000    0.0000000000000000    0.3278044903460429 Br
   0.5000000000000000    0.5000000000000000    0.3278044903460429 Br
   0.2500000000000000    0.2500000000000000    0.3545097355190643 Br
   0.7500000000000000    0.7500000000000000    0.3545097355190643 Br
   0.2499999999999999    0.7500000000000000    0.3545097355190643 Br
   0.7500000000000000    0.2499999999999999    0.3545097355190643 Br
   0.0000000000000000    0.0000000000000000    0.3812149806920858 Br
   0.5000000000000000    0.5000000000000000    0.3812149806920858 Br
   0.2500000000000000    0.2500000000000000    0.4079202258651072 Br
   0.7500000000000000    0.7500000000000000    0.4079202258651072 Br
   0.2499999999999999    0.7500000000000000    0.4079202258651072 Br
   0.7500000000000000    0.2499999999999999    0.4079202258651072 Br
   0.0000000000000000    0.0000000000000000    0.4346254710381288 Br
   0.5000000000000000    0.5000000000000000    0.4346254710381288 Br
   0.2500000000000000    0.2500000000000000    0.4613307162111503 Br
   0.7500000000000000    0.7500000000000000    0.4613307162111503 Br
   0.2499999999999999    0.7500000000000000    0.4613307162111503 Br
   0.7500000000000000    0.2499999999999999    0.4613307162111503 Br
   0.6650396722929288    0.2066333412579437    0.4939511991724026 Br
   0.8332396722929287    0.7066333412579439    0.4939511991724026 Br
   0.1650396722929288    0.6788333412579441    0.5216114697325026 Br
   0.3332396722929287    0.1788333412579438    0.5216114697325026 Br
   0.1650396722929288    0.6788333412579441    0.5593728419351748 Br
   0.3332396722929287    0.1788333412579438    0.5593728419351748 Br
   0.6650396722929288    0.2066333412579437    0.5870331124952750 Br
   0.8332396722929287    0.7066333412579439    0.5870331124952750 Br
   0.6650396722929288    0.2066333412579437    0.6247944846979471 Br
   0.8332396722929287    0.7066333412579439    0.6247944846979471 Br
   0.1650396722929288    0.6788333412579441    0.6524547552580467 Br
   0.3332396722929287    0.1788333412579438    0.6524547552580467 Br
   0.1650396722929288    0.6788333412579441    0.6902161274607193 Br
   0.3332396722929287    0.1788333412579438    0.6902161274607193 Br
   0.6650396722929288    0.2066333412579437    0.7178763980208193 Br
   0.8332396722929287    0.7066333412579439    0.7178763980208193 Br
