Pb4 S2 Br6
1.0
   8.1761550739920139    0.0000000000000000    0.0000000000000000
   0.0000000000000000    8.2176550739920131    0.0000000000000000
   0.0000000000000000    0.0000000000000000  110.9372000000000043
Pb S Br
4 2 6
direct
   0.0000000000000000    0.0000000000000000    0.4613307162111503 Pb
   0.5000000000000000    0.5000000000000000    0.4613307162111503 Pb
   0.0272396722929289    0.4008333412579438    0.5028485425881395 Pb
   0.4710396722929289    0.9008333412579438    0.5028485425881395 Pb
   0.0961396722929289    0.0117333412579441    0.4905100207630808 S
   0.4021396722929289    0.5117333412579439    0.4905100207630808 S
   0.2500000000000000    0.2500000000000000    0.4613307162111503 Br
   0.7500000000000000    0.7500000000000000    0.4613307162111503 Br
   0.2499999999999999    0.7500000000000000    0.4613307162111503 Br
   0.7500000000000000    0.2499999999999999    0.4613307162111503 Br
   0.6650396722929288    0.2066333412579437    0.4939511991724026 Br
   0.8332396722929287    0.7066333412579439    0.4939511991724026 Br
