ALGO = All
ENCUT = 400
GGA = Pe
ICHARG = 2
ISMEAR = 0
ISPIN = 2
ISTART = 0
KPAR = 16
LDAU = True
LDAUJ = 0.0 0
LDAUL = 2 -1
LDAUU = 0.0 0
LMAXMIX = 4
LORBIT = 11
LSORBIT = .TRUE.
MAGMOM = 2*0.0 1*0.5 3*0.0
NCORE = 1
NPAR = 4
PREC = N
SIGMA = 0.02
