Generated by VASPKIT code
 1.000000
    4.3919999599999997    2.5357223592000002    0.0000000000000000
    0.0000000001000000    5.0714447184000004    0.0000000000000000
    0.0000000000000000    0.0000000000000000   36.2434005738000025
   O    Cr   Pd
    36    18    18
Cartesian
    1.4639999867000000    2.5357223592000007   10.9884555469000009     O001
    1.4639999867000000    2.5357223592000007   29.1101558338000004     O002
    0.0000000000000000    0.0000000000000000   10.9884555469000009     O003
    0.0000000000000000    0.0000000000000000   29.1101558338000004     O004
    2.9279999734000000    5.0714447184000004   10.9884555469000009     O005
    2.9279999734000000    5.0714447184000004   29.1101558338000004     O006
    1.4639999867000000    2.5357223592000007    7.1332450269999983     O007
    1.4639999867000000    2.5357223592000007   25.2549453138999986     O008
    0.0000000000000000    0.0000000000000000    7.1332450269999983     O009
    0.0000000000000000    0.0000000000000000   25.2549453138999986     O010
    2.9279999734000000    5.0714447184000004    7.1332450269999983     O011
    2.9279999734000000    5.0714447184000004   25.2549453138999986     O012
    2.9279999737000000    3.3809631452000004   17.0290223089000001     O013
    2.9279999737000000    3.3809631452000004   35.1507225957999978     O014
    1.4639999871000002    5.9166855044000002   17.0290223089000001     O015
    1.4639999871000002    5.9166855044000002   35.1507225957999978     O016
    0.0000000004000002    3.3809631452000000   17.0290223089000001     O017
    0.0000000004000002    3.3809631452000000   35.1507225957999978     O018
    2.9279999737000000    3.3809631452000004   13.1738117899000020     O019
    2.9279999737000000    3.3809631452000004   31.2955120768000050     O020
    1.4639999871000002    5.9166855044000002   13.1738117899000020     O021
    1.4639999871000002    5.9166855044000002   31.2955120768000050     O022
    0.0000000004000002    3.3809631452000000   13.1738117899000020     O023
    0.0000000004000002    3.3809631452000000   31.2955120768000050     O024
    1.4639999866999993    4.2262039322000007    4.9478887840000008     O025
    1.4639999866999993    4.2262039322000007   23.0695890709000011     O026
    4.3919999599999997    4.2262039322000007    4.9478887840000008     O027
    4.3919999599999997    4.2262039322000007   23.0695890709000011     O028
    2.9279999732999995    1.6904815729999996    4.9478887840000008     O029
    2.9279999732999995    1.6904815729999996   23.0695890709000011     O030
    1.4639999866999993    4.2262039322000007    1.0926782649999995     O031
    1.4639999866999993    4.2262039322000007   19.2143785519000012     O032
    4.3919999599999997    4.2262039322000007    1.0926782649999995     O033
    4.3919999599999997    4.2262039322000007   19.2143785519000012     O034
    2.9279999732999995    1.6904815729999996    1.0926782649999995     O035
    2.9279999732999995    1.6904815729999996   19.2143785519000012     O036
    1.4639999867000000    2.5357223592000007    0.0000001430000002    Cr001    #B0
    1.4639999867000000    2.5357223592000007   18.1217004299000024    Cr002    #B3
    0.0000000000000000    0.0000000000000000    0.0000001430000002    Cr003    #A0
    0.0000000000000000    0.0000000000000000   18.1217004299000024    Cr004    #A3
    2.9279999734000000    5.0714447184000004    0.0000001430000002    Cr005    #C0
    2.9279999734000000    5.0714447184000004   18.1217004299000024    Cr006    #C3
    2.9279999737000000    3.3809631452000004    6.0405669060000005    Cr007    #C1
    2.9279999737000000    3.3809631452000004   24.1622671928999999    Cr008    #C4
    1.4639999871000002    5.9166855044000002    6.0405669060000005    Cr009    #A1
    1.4639999871000002    5.9166855044000002   24.1622671928999999    Cr010    #A4
    0.0000000004000002    3.3809631452000000    6.0405669060000005    Cr011    #B1
    0.0000000004000002    3.3809631452000000   24.1622671928999999    Cr012    #B4
    1.4639999866999993    4.2262039322000007   12.0811336678999979    Cr013    #A2
    1.4639999866999993    4.2262039322000007   30.2028339547999991    Cr014    #A5
    4.3919999599999997    4.2262039322000007   12.0811336678999979    Cr015    #B2
    4.3919999599999997    4.2262039322000007   30.2028339547999991    Cr016    #B5
    2.9279999732999995    1.6904815729999996   12.0811336678999979    Cr017    #C2
    2.9279999732999995    1.6904815729999996   30.2028339547999991    Cr018    #C5
    1.4639999867000000    2.5357223592000007    9.0608502869000009    Pd001
    1.4639999867000000    2.5357223592000007   27.1825505738000039    Pd002
    0.0000000000000000    0.0000000000000000    9.0608502869000009    Pd003
    0.0000000000000000    0.0000000000000000   27.1825505738000039    Pd004
    2.9279999734000000    5.0714447184000004    9.0608502869000009    Pd005
    2.9279999734000000    5.0714447184000004   27.1825505738000039    Pd006
    2.9279999737000000    3.3809631452000004   15.1014170489000001    Pd007
    2.9279999737000000    3.3809631452000004   33.2231173357999978    Pd008
    1.4639999871000002    5.9166855044000002   15.1014170489000001    Pd009
    1.4639999871000002    5.9166855044000002   33.2231173357999978    Pd010
    0.0000000004000002    3.3809631452000000   15.1014170489000001    Pd011
    0.0000000004000002    3.3809631452000000   33.2231173357999978    Pd012
    1.4639999866999993    4.2262039322000007    3.0202835249999986    Pd013
    1.4639999866999993    4.2262039322000007   21.1419838119000012    Pd014
    4.3919999599999997    4.2262039322000007    3.0202835249999986    Pd015
    4.3919999599999997    4.2262039322000007   21.1419838119000012    Pd016
    2.9279999732999995    1.6904815729999996    3.0202835249999986    Pd017
    2.9279999732999995    1.6904815729999996   21.1419838119000012    Pd018
