Generated by VASPKIT code
 1.000000
    0.0000000000000000    2.1285500000000006    2.1285500000000006
    2.1285500000000006    0.0000000000000000    2.1285500000000006
    2.1285500000000006    2.1285500000000006    0.0000000000000000
      Co      O 
       1       1
Direct
    0.0000000000000000    0.0000000000000000    0.0000000000000000    Co0001
    0.5000000000000000    0.5000000000000000    0.5000000000000000     O0001
