L=2|T=1|O=True
1.0
   8.0950000000000006    0.0000000000000000    0.0000000000000000
   0.0000000000000000    8.1780000000000008    0.0000000000000000
   0.0000000000000000    0.0000000000000000   58.9279999999999973
Pb S Br
32 24 16
direct
   0.1749000000000000    0.3622000000000000    0.2945750000000000 Pb
   0.2689000000000000    0.8622000000000000    0.2945750000000000 Pb
   0.6217000000000000    0.1565000000000000    0.2945750000000000 Pb
   0.8221000000000001    0.6565000000000000    0.2945750000000000 Pb
   0.0000000000000000    0.0000000000000000    0.3476500000000000 Pb
   0.4438000000000000    0.5000000000000000    0.3476500000000000 Pb
   0.5000000000000000    0.0838000000000000    0.3665000000000000 Pb
   0.9438000000000000    0.5838000000000000    0.3665000000000000 Pb
   0.1217000000000000    0.9273000000000000    0.4195750000000000 Pb
   0.3221000000000000    0.4273000000000000    0.4195750000000000 Pb
   0.6749000000000001    0.7216000000000000    0.4195750000000000 Pb
   0.7689000000000000    0.2216000000000000    0.4195750000000000 Pb
   0.5000000000000000    0.0838000000000000    0.4726500000000000 Pb
   0.9438000000000000    0.5838000000000000    0.4726500000000000 Pb
   0.0000000000000000    0.0000000000000000    0.4915000000000000 Pb
   0.4438000000000000    0.5000000000000000    0.4915000000000000 Pb
   0.1749000000000000    0.3622000000000000    0.5445750000000000 Pb
   0.2689000000000000    0.8622000000000000    0.5445750000000000 Pb
   0.6217000000000000    0.1565000000000000    0.5445750000000000 Pb
   0.8221000000000001    0.6565000000000000    0.5445750000000000 Pb
   0.0000000000000000    0.0000000000000000    0.5976500000000000 Pb
   0.4438000000000000    0.5000000000000000    0.5976500000000000 Pb
   0.5000000000000000    0.0838000000000000    0.6165000000000000 Pb
   0.9438000000000000    0.5838000000000000    0.6165000000000000 Pb
   0.1217000000000000    0.9273000000000000    0.6695750000000000 Pb
   0.3221000000000000    0.4273000000000000    0.6695750000000000 Pb
   0.6749000000000001    0.7216000000000000    0.6695750000000000 Pb
   0.7689000000000000    0.2216000000000000    0.6695750000000000 Pb
   0.5000000000000000    0.0838000000000000    0.7226500000000000 Pb
   0.9438000000000000    0.5838000000000000    0.7226500000000000 Pb
   0.0000000000000000    0.0000000000000000    0.7415000000000000 Pb
   0.4438000000000000    0.5000000000000000    0.7415000000000000 Pb
   0.0689000000000000    0.6109000000000000    0.2650750000000000 S
   0.3749000000000000    0.1109000000000000    0.2650750000000000 S
   0.4629000000000000    0.5049000000000000    0.2945750000000000 S
   0.9809000000000000    0.0049000000000000    0.2945750000000000 S
   0.0689000000000000    0.6109000000000000    0.3240750000000000 S
   0.3749000000000000    0.1109000000000000    0.3240750000000000 S
   0.5689000000000000    0.4729000000000000    0.3900750000000000 S
   0.8749000000000000    0.9729000000000000    0.3900750000000000 S
   0.4809000000000000    0.0789000000000000    0.4195750000000000 S
   0.9629000000000000    0.5789000000000000    0.4195750000000000 S
   0.5689000000000000    0.4729000000000000    0.4490750000000000 S
   0.8749000000000000    0.9729000000000000    0.4490750000000000 S
   0.0689000000000000    0.6109000000000000    0.5150749999999999 S
   0.3749000000000000    0.1109000000000000    0.5150749999999999 S
   0.4629000000000000    0.5049000000000000    0.5445750000000000 S
   0.9809000000000000    0.0049000000000000    0.5445750000000000 S
   0.0689000000000000    0.6109000000000000    0.5740750000000000 S
   0.3749000000000000    0.1109000000000000    0.5740750000000000 S
   0.5689000000000000    0.4729000000000000    0.6400749999999999 S
   0.8749000000000000    0.9729000000000000    0.6400749999999999 S
   0.4809000000000000    0.0789000000000000    0.6695750000000000 S
   0.9629000000000000    0.5789000000000000    0.6695750000000000 S
   0.5689000000000000    0.4729000000000000    0.6990750000000000 S
   0.8749000000000000    0.9729000000000000    0.6990750000000000 S
   0.6378000000000000    0.8058000000000000    0.2585000000000000 Br
   0.8060000000000000    0.3058000000000000    0.2585000000000000 Br
   0.6378000000000000    0.8058000000000000    0.3306500000000000 Br
   0.8060000000000000    0.3058000000000000    0.3306500000000000 Br
   0.1378000000000000    0.2780000000000000    0.3835000000000000 Br
   0.3060000000000000    0.7780000000000000    0.3835000000000000 Br
   0.1378000000000000    0.2780000000000000    0.4556500000000000 Br
   0.3060000000000000    0.7780000000000000    0.4556500000000000 Br
   0.6378000000000000    0.8058000000000000    0.5085000000000000 Br
   0.8060000000000000    0.3058000000000000    0.5085000000000000 Br
   0.6378000000000000    0.8058000000000000    0.5806500000000000 Br
   0.8060000000000000    0.3058000000000000    0.5806500000000000 Br
   0.1378000000000000    0.2780000000000000    0.6335000000000000 Br
   0.3060000000000000    0.7780000000000000    0.6335000000000000 Br
   0.1378000000000000    0.2780000000000000    0.7056500000000000 Br
   0.3060000000000000    0.7780000000000000    0.7056500000000000 Br
