Pb2 S4 Br6
1.0
   8.1761550739920139    0.0000000000000000    0.0000000000000000
   0.0000000000000000    8.2176550739920131    0.0000000000000000
   0.0000000000000000    0.0000000000000000  110.9372000000000043
Pb S Br
2 4 6
direct
   0.0000000000000000    0.0000000000000000    0.4580597162111503 Pb
   0.5000000000000000    0.5000000000000000    0.4580597162111503 Pb
   0.5941443124880613    0.5446999248242128    0.4977339422285905 S
   0.9001443124880616    0.0446999248242128    0.4977339422285905 S
   0.9881443124880613    0.4386999248242128    0.5131734499206047 S
   0.5061443124880616    0.9386999248242128    0.5131734499206047 S
   0.2500000000000000    0.2500000000000000    0.4580597162111503 Br
   0.7500000000000000    0.7500000000000000    0.4580597162111503 Br
   0.2499999999999999    0.7500000000000000    0.4580597162111503 Br
   0.7500000000000000    0.2499999999999999    0.4580597162111503 Br
   0.1630443124880618    0.7395999248242128    0.4942927638192686 Br
   0.3312443124880615    0.2395999248242128    0.4942927638192686 Br
