L=2,4|T=1,0|O=1|d=4.020|a=0.5252|b=-0.0662
1.0
   8.1761550739920139    0.0000000000000000    0.0000000000000000
   0.0000000000000000    8.2176550739920131    0.0000000000000000
   0.0000000000000000    0.0000000000000000  110.9372000000000043
Cs Pb S Br
8 40 24 40
direct
   0.5000000000000000    0.0000000000000000    0.2711230000000000 Cs
   0.0000000000000000    0.5000000000000000    0.2711230000000000 Cs
   0.5000000000000000    0.0000000000000000    0.3245334903460430 Cs
   0.0000000000000000    0.5000000000000000    0.3245334903460430 Cs
   0.5000000000000000    0.0000000000000000    0.3779439806920858 Cs
   0.0000000000000000    0.5000000000000000    0.3779439806920858 Cs
   0.5000000000000000    0.0000000000000000    0.4313544710381288 Cs
   0.0000000000000000    0.5000000000000000    0.4313544710381288 Cs
   0.0000000000000000    0.0000000000000000    0.2978282451730215 Pb
   0.5000000000000000    0.5000000000000000    0.2978282451730215 Pb
   0.0000000000000000    0.0000000000000000    0.3512387355190644 Pb
   0.5000000000000000    0.5000000000000000    0.3512387355190644 Pb
   0.0000000000000000    0.0000000000000000    0.4046492258651073 Pb
   0.5000000000000000    0.5000000000000000    0.4046492258651073 Pb
   0.0000000000000000    0.0000000000000000    0.4580597162111503 Pb
   0.5000000000000000    0.5000000000000000    0.4580597162111503 Pb
   0.7001443124880613    0.2959999248242131    0.5131734499206047 Pb
   0.7941443124880616    0.7959999248242132    0.5131734499206047 Pb
   0.1469443124880614    0.0902999248242128    0.5131734499206047 Pb
   0.3473443124880613    0.5902999248242128    0.5131734499206047 Pb
   0.5252443124880614    0.9337999248242128    0.5409514794376779 Pb
   0.9690443124880613    0.4337999248242128    0.5409514794376779 Pb
   0.0252443124880615    0.0175999248242128    0.5508170631663039 Pb
   0.4690443124880619    0.5175999248242128    0.5508170631663039 Pb
   0.6469443124880614    0.8610999248242128    0.5785950926833769 Pb
   0.8473443124880615    0.3610999248242130    0.5785950926833769 Pb
   0.2001443124880615    0.6553999248242128    0.5785950926833769 Pb
   0.2941443124880614    0.1553999248242129    0.5785950926833769 Pb
   0.0252443124880615    0.0175999248242128    0.6063731222004500 Pb
   0.4690443124880619    0.5175999248242128    0.6063731222004500 Pb
   0.5252443124880614    0.9337999248242128    0.6162387059290761 Pb
   0.9690443124880613    0.4337999248242128    0.6162387059290761 Pb
   0.7001443124880613    0.2959999248242131    0.6440167354461493 Pb
   0.7941443124880616    0.7959999248242132    0.6440167354461493 Pb
   0.1469443124880614    0.0902999248242128    0.6440167354461493 Pb
   0.3473443124880613    0.5902999248242128    0.6440167354461493 Pb
   0.5252443124880614    0.9337999248242128    0.6717947649632221 Pb
   0.9690443124880613    0.4337999248242128    0.6717947649632221 Pb
   0.0252443124880615    0.0175999248242128    0.6816603486918484 Pb
   0.4690443124880619    0.5175999248242128    0.6816603486918484 Pb
   0.6469443124880614    0.8610999248242128    0.7094383782089215 Pb
   0.8473443124880615    0.3610999248242130    0.7094383782089215 Pb
   0.2001443124880615    0.6553999248242128    0.7094383782089215 Pb
   0.2941443124880614    0.1553999248242129    0.7094383782089215 Pb
   0.0252443124880615    0.0175999248242128    0.7372164077259946 Pb
   0.4690443124880619    0.5175999248242128    0.7372164077259946 Pb
   0.5252443124880614    0.9337999248242128    0.7470819914546208 Pb
   0.9690443124880613    0.4337999248242128    0.7470819914546208 Pb
   0.5941443124880613    0.5446999248242128    0.4977339422285905 S
   0.9001443124880616    0.0446999248242128    0.4977339422285905 S
   0.9881443124880613    0.4386999248242128    0.5131734499206047 S
   0.5061443124880616    0.9386999248242128    0.5131734499206047 S
   0.5941443124880613    0.5446999248242128    0.5286129576126191 S
   0.9001443124880616    0.0446999248242128    0.5286129576126191 S
   0.0941443124880612    0.4066999248242129    0.5631555849913628 S
   0.4001443124880613    0.9066999248242131    0.5631555849913628 S
   0.0061443124880614    0.0126999248242128    0.5785950926833769 S
   0.4881443124880613    0.5126999248242128    0.5785950926833769 S
   0.0941443124880612    0.4066999248242129    0.5940346003753912 S
   0.4001443124880613    0.9066999248242131    0.5940346003753912 S
   0.5941443124880613    0.5446999248242128    0.6285772277541349 S
   0.9001443124880616    0.0446999248242128    0.6285772277541349 S
   0.9881443124880613    0.4386999248242128    0.6440167354461493 S
   0.5061443124880616    0.9386999248242128    0.6440167354461493 S
   0.5941443124880613    0.5446999248242128    0.6594562431381634 S
   0.9001443124880616    0.0446999248242128    0.6594562431381634 S
   0.0941443124880612    0.4066999248242129    0.6939988705169071 S
   0.4001443124880613    0.9066999248242131    0.6939988705169071 S
   0.0061443124880614    0.0126999248242128    0.7094383782089215 S
   0.4881443124880613    0.5126999248242128    0.7094383782089215 S
   0.0941443124880612    0.4066999248242129    0.7248778859009355 S
   0.4001443124880613    0.9066999248242131    0.7248778859009355 S
   0.0000000000000000    0.0000000000000000    0.2711230000000000 Br
   0.5000000000000000    0.5000000000000000    0.2711230000000000 Br
   0.2500000000000000    0.2500000000000000    0.2978282451730215 Br
   0.7500000000000000    0.7500000000000000    0.2978282451730215 Br
   0.2499999999999999    0.7500000000000000    0.2978282451730215 Br
   0.7500000000000000    0.2499999999999999    0.2978282451730215 Br
   0.0000000000000000    0.0000000000000000    0.3245334903460430 Br
   0.5000000000000000    0.5000000000000000    0.3245334903460430 Br
   0.2500000000000000    0.2500000000000000    0.3512387355190644 Br
   0.7500000000000000    0.7500000000000000    0.3512387355190644 Br
   0.2499999999999999    0.7500000000000000    0.3512387355190644 Br
   0.7500000000000000    0.2499999999999999    0.3512387355190644 Br
   0.0000000000000000    0.0000000000000000    0.3779439806920858 Br
   0.5000000000000000    0.5000000000000000    0.3779439806920858 Br
   0.2500000000000000    0.2500000000000000    0.4046492258651073 Br
   0.7500000000000000    0.7500000000000000    0.4046492258651073 Br
   0.2499999999999999    0.7500000000000000    0.4046492258651073 Br
   0.7500000000000000    0.2499999999999999    0.4046492258651073 Br
   0.0000000000000000    0.0000000000000000    0.4313544710381288 Br
   0.5000000000000000    0.5000000000000000    0.4313544710381288 Br
   0.2500000000000000    0.2500000000000000    0.4580597162111503 Br
   0.7500000000000000    0.7500000000000000    0.4580597162111503 Br
   0.2499999999999999    0.7500000000000000    0.4580597162111503 Br
   0.7500000000000000    0.2499999999999999    0.4580597162111503 Br
   0.1630443124880618    0.7395999248242128    0.4942927638192686 Br
   0.3312443124880615    0.2395999248242128    0.4942927638192686 Br
   0.1630443124880618    0.7395999248242128    0.5320541360219408 Br
   0.3312443124880615    0.2395999248242128    0.5320541360219408 Br
   0.6630443124880614    0.2117999248242128    0.5597144065820410 Br
   0.8312443124880613    0.7117999248242128    0.5597144065820410 Br
   0.6630443124880614    0.2117999248242128    0.5974757787847131 Br
   0.8312443124880613    0.7117999248242128    0.5974757787847131 Br
   0.1630443124880618    0.7395999248242128    0.6251360493448133 Br
   0.3312443124880615    0.2395999248242128    0.6251360493448133 Br
   0.1630443124880618    0.7395999248242128    0.6628974215474853 Br
   0.3312443124880615    0.2395999248242128    0.6628974215474853 Br
   0.6630443124880614    0.2117999248242128    0.6905576921075856 Br
   0.8312443124880613    0.7117999248242128    0.6905576921075856 Br
   0.6630443124880614    0.2117999248242128    0.7283190643102575 Br
   0.8312443124880613    0.7117999248242128    0.7283190643102575 Br
